*Heading
** Job name: 10 Model name: Model-1
** Generated by: Abaqus/CAE 2024
*Preprint, echo=NO, model=NO, history=NO, contact=NO
** ----------------------------------------------------------------
**
*Parameter
** number of viscous mechanisms
** 
Gshear = 0.19926
Kbulk  = 0.19926e3
lamL   = 2.04
Amp    = 0.6
nu_s0  = 0.6
nu_ss  = 0.95
dE   = 1.e-2
nSdv = 3
nProps = 7
**
** PART INSTANCE: SENT-1
** 
*Node
      1,         250.,  -93.4000015
      2,   117.373077,  -93.4000015
      3,           0.,        -150.
      4,           0.,        -450.
      5,         250.,        -450.
      6,         250.,   93.4000015
      7,   117.373077,   93.4000015
      8,         150.,           0.
      9,         250.,         450.
     10,           0.,         450.
     11,           0.,         150.
     12,   239.797928,  -93.4000015
     13,   229.595856,  -93.4000015
     14,   219.393784,  -93.4000015
     15,   209.191711,  -93.4000015
     16,   198.989639,  -93.4000015
     17,   188.787582,  -93.4000015
     18,    178.58551,  -93.4000015
     19,   168.383438,  -93.4000015
     20,   158.181366,  -93.4000015
     21,   147.979294,  -93.4000015
     22,   137.777222,  -93.4000015
     23,    127.57515,  -93.4000015
     24,   110.641441,  -101.284111
     25,    103.38131,  -108.684433
     26,   95.6273575,  -115.565598
     27,   87.4166336,   -121.89476
     28,    78.788353,   -127.64167
     29,   69.7837296,  -132.778885
     30,   60.4457741,   -137.28186
     31,   50.8190918,  -141.129089
     32,   40.9496613,    -144.3022
     33,    30.884634,  -146.786026
     34,    20.672081,  -148.568726
     35,   10.3607855,  -149.641754
     36,           0.,        -160.
     37,           0.,        -170.
     38,           0.,        -180.
     39,           0.,        -190.
     40,           0.,        -200.
     41,           0.,        -210.
     42,           0.,        -220.
     43,           0.,        -230.
     44,           0.,        -240.
     45,           0.,        -250.
     46,           0.,        -260.
     47,           0.,        -270.
     48,           0.,        -280.
     49,           0.,        -290.
     50,           0.,        -300.
     51,           0.,        -310.
     52,           0.,        -320.
     53,           0.,        -330.
     54,           0.,        -340.
     55,           0.,        -350.
     56,           0.,        -360.
     57,           0.,        -370.
     58,           0.,        -380.
     59,           0.,        -390.
     60,           0.,        -400.
     61,           0.,        -410.
     62,           0.,        -420.
     63,           0.,        -430.
     64,           0.,        -440.
     65,          10.,        -450.
     66,          20.,        -450.
     67,          30.,        -450.
     68,          40.,        -450.
     69,          50.,        -450.
     70,          60.,        -450.
     71,          70.,        -450.
     72,          80.,        -450.
     73,          90.,        -450.
     74,         100.,        -450.
     75,         110.,        -450.
     76,         120.,        -450.
     77,         130.,        -450.
     78,         140.,        -450.
     79,         150.,        -450.
     80,         160.,        -450.
     81,         170.,        -450.
     82,         180.,        -450.
     83,         190.,        -450.
     84,         200.,        -450.
     85,         210.,        -450.
     86,         220.,        -450.
     87,         230.,        -450.
     88,         240.,        -450.
     89,         250.,  -440.094452
     90,         250.,  -430.188904
     91,         250.,  -420.283325
     92,         250.,  -410.377777
     93,         250.,  -400.472229
     94,         250.,  -390.566681
     95,         250.,  -380.661102
     96,         250.,  -370.755554
     97,         250.,  -360.850006
     98,         250.,  -350.944458
     99,         250.,  -341.038879
    100,         250.,  -331.133331
    101,         250.,  -321.227783
    102,         250.,  -311.322235
    103,         250.,  -301.416656
    104,         250.,  -291.511108
    105,         250.,   -281.60556
    106,         250.,  -271.700012
    107,         250.,  -261.794434
    108,         250.,  -251.888885
    109,         250.,  -241.983337
    110,         250.,  -232.077774
    111,         250.,  -222.172226
    112,         250.,  -212.266663
    113,         250.,  -202.361115
    114,         250.,  -192.455551
    115,         250.,  -182.550003
    116,         250.,   -172.64444
    117,         250.,  -162.738892
    118,         250.,  -152.833328
    119,         250.,   -142.92778
    120,         250.,  -133.022217
    121,         250.,  -123.116669
    122,         250.,  -113.211113
    123,         250.,  -103.305557
    124,   239.797928,   93.4000015
    125,   229.595856,   93.4000015
    126,   219.393784,   93.4000015
    127,   209.191711,   93.4000015
    128,   198.989639,   93.4000015
    129,   188.787582,   93.4000015
    130,    178.58551,   93.4000015
    131,   168.383438,   93.4000015
    132,   158.181366,   93.4000015
    133,   147.979294,   93.4000015
    134,   137.777222,   93.4000015
    135,    127.57515,   93.4000015
    136,   123.381165,   85.3058548
    137,   128.832047,   76.8264542
    138,   133.701111,   68.0000992
    139,    137.96637,   58.8666496
    140,   141.608551,   49.4673538
    141,   144.611221,   39.8446541
    142,     146.9608,   30.0420151
    143,   148.646698,   20.1037045
    144,   149.661285,   10.0746012
    145,   149.661285,  -10.0746012
    146,   148.646698,  -20.1037045
    147,     146.9608,  -30.0420151
    148,   144.611221,  -39.8446541
    149,   141.608551,  -49.4673538
    150,    137.96637,  -58.8666496
    151,   133.701111,  -68.0000992
    152,   128.832047,  -76.8264542
    153,   123.381165,  -85.3058548
    154,         250.,  -83.5684204
    155,         250.,  -73.7368393
    156,         250.,   -63.905262
    157,         250.,  -54.0736847
    158,         250.,  -44.2421036
    159,         250.,  -34.4105263
    160,         250.,  -24.5789471
    161,         250.,  -14.7473688
    162,         250.,   -4.9157896
    163,         250.,    4.9157896
    164,         250.,   14.7473688
    165,         250.,   24.5789471
    166,         250.,   34.4105263
    167,         250.,   44.2421036
    168,         250.,   54.0736847
    169,         250.,    63.905262
    170,         250.,   73.7368393
    171,         250.,   83.5684204
    172,         250.,   103.305557
    173,         250.,   113.211113
    174,         250.,   123.116669
    175,         250.,   133.022217
    176,         250.,    142.92778
    177,         250.,   152.833328
    178,         250.,   162.738892
    179,         250.,    172.64444
    180,         250.,   182.550003
    181,         250.,   192.455551
    182,         250.,   202.361115
    183,         250.,   212.266663
    184,         250.,   222.172226
    185,         250.,   232.077774
    186,         250.,   241.983337
    187,         250.,   251.888885
    188,         250.,   261.794434
    189,         250.,   271.700012
    190,         250.,    281.60556
    191,         250.,   291.511108
    192,         250.,   301.416656
    193,         250.,   311.322235
    194,         250.,   321.227783
    195,         250.,   331.133331
    196,         250.,   341.038879
    197,         250.,   350.944458
    198,         250.,   360.850006
    199,         250.,   370.755554
    200,         250.,   380.661102
    201,         250.,   390.566681
    202,         250.,   400.472229
    203,         250.,   410.377777
    204,         250.,   420.283325
    205,         250.,   430.188904
    206,         250.,   440.094452
    207,         240.,         450.
    208,         230.,         450.
    209,         220.,         450.
    210,         210.,         450.
    211,         200.,         450.
    212,         190.,         450.
    213,         180.,         450.
    214,         170.,         450.
    215,         160.,         450.
    216,         150.,         450.
    217,         140.,         450.
    218,         130.,         450.
    219,         120.,         450.
    220,         110.,         450.
    221,         100.,         450.
    222,          90.,         450.
    223,          80.,         450.
    224,          70.,         450.
    225,          60.,         450.
    226,          50.,         450.
    227,          40.,         450.
    228,          30.,         450.
    229,          20.,         450.
    230,          10.,         450.
    231,           0.,         440.
    232,           0.,         430.
    233,           0.,         420.
    234,           0.,         410.
    235,           0.,         400.
    236,           0.,         390.
    237,           0.,         380.
    238,           0.,         370.
    239,           0.,         360.
    240,           0.,         350.
    241,           0.,         340.
    242,           0.,         330.
    243,           0.,         320.
    244,           0.,         310.
    245,           0.,         300.
    246,           0.,         290.
    247,           0.,         280.
    248,           0.,         270.
    249,           0.,         260.
    250,           0.,         250.
    251,           0.,         240.
    252,           0.,         230.
    253,           0.,         220.
    254,           0.,         210.
    255,           0.,         200.
    256,           0.,         190.
    257,           0.,         180.
    258,           0.,         170.
    259,           0.,         160.
    260,   10.3607855,   149.641754
    261,    20.672081,   148.568726
    262,    30.884634,   146.786026
    263,   40.9496613,     144.3022
    264,   50.8190918,   141.129089
    265,   60.4457741,    137.28186
    266,   69.7837296,   132.778885
    267,    78.788353,    127.64167
    268,   87.4166336,    121.89476
    269,   95.6273575,   115.565598
    270,    103.38131,   108.684433
    271,   110.641441,   101.284111
    272,   241.177612,  -261.298553
    273,   241.164154,  -202.037689
    274,    241.18222,   -310.78775
    275,   241.169235,  -281.087708
    276,   241.175034,  -340.491638
    277,   241.112717,  -360.316589
    278,   240.853836,  -380.258118
    279,   240.433777,  -400.285767
    280,   241.164841,  -350.368408
    281,   240.085892,  -430.160461
    282,   241.199921,  -330.552185
    283,   241.202347,  -320.662231
    284,   240.022034,  -440.077942
    285,   241.201141,  -300.857788
    286,   241.195038,  -290.970276
    287,   241.190689,  -271.141266
    288,   241.176529,   -251.41687
    289,   241.192856,   -241.51622
    290,   241.226089,  -231.624161
    291,   241.237518,  -221.770935
    292,   241.238602,  -211.888779
    293,   241.100418,  -192.117737
    294,   241.001587,  -182.191391
    295,   240.876266,  -172.274033
    296,   240.756683,  -162.346741
    297,   240.650009,  -152.438141
    298,   240.549042,  -142.540985
    299,   240.442184,   -132.64183
    300,   240.329056,  -122.755974
    301,   240.201889,  -112.897179
    302,   8.79522514,  -319.158295
    303,   9.07782459,  -239.363464
    304,   8.92467117,  -259.405396
    305,   9.45352936,  -219.277359
    306,      9.23209,   -229.37178
    307,   8.97753429,  -249.407059
    308,    8.8366375,  -299.248383
    309,   8.77114582,  -309.244049
    310,   120.405922,  -441.358307
    311,   110.506844,  -441.366943
    312,    100.58049,  -441.348785
    313,   90.6251755,  -441.308624
    314,   80.6520081,  -441.222839
    315,   70.5846863,  -441.069366
    316,   60.4788857,  -440.858521
    317,   50.3381233,  -440.619049
    318,   30.0384846,  -440.315186
    319,   19.9842777,  -440.189911
    320,   9.97321892,  -440.084625
    321,   40.1923141,  -440.418884
    322,   9.25193501,  -359.012939
    323,   8.97198009,  -348.952942
    324,   8.83505344,  -339.003693
    325,   8.78000069,  -329.089111
    326,   150.104095,  -441.288269
    327,    8.8277092,  -289.316986
    328,   8.82665443,  -279.379791
    329,   8.84150314,  -269.445862
    330,   139.978271,  -103.060593
    331,   169.528015,  -102.255074
    332,   199.763138,  -102.695419
    333,    209.87236,  -102.781723
    334,   130.823044,  -104.430382
    335,   149.705048,  -102.404724
    336,    159.56575,  -102.195999
    337,   179.551086,  -102.405731
    338,   189.638046,  -102.568481
    339,   219.941071,   -102.85952
    340,   73.4676971,  -140.773697
    341,   99.9643097,  -123.027702
    342,   108.026398,   -116.78331
    343,   42.8713341,  -154.177704
    344,   53.4987183,  -150.093094
    345,   32.0522614,  -156.543701
    346,     82.70784,  -135.337112
    347,   91.5349426,  -129.328278
    348,   63.7917747,  -145.607239
    349,   241.011536,  -370.220367
    350,   240.624237,  -390.224762
    351,   240.146637,  -420.201721
    352,    232.50589,  -201.637344
    353,   232.453873,  -250.763306
    354,   232.424988,  -349.514313
    355,   240.254013,  -410.248901
    356,   232.483047,  -319.875183
    357,   230.012573,  -429.963562
    358,   232.455948,  -290.252808
    359,   232.587296,  -221.256226
    360,   231.817322,  -171.931061
    361,   230.590271,   -122.47937
    362,   232.502365,  -309.946869
    363,    232.45224,  -260.590912
    364,   232.481735,  -339.605072
    365,   232.369537,  -191.748978
    366,   231.527664,  -161.986938
    367,   232.130005,  -181.839691
    368,   231.036438,  -142.215317
    369,   232.452774,  -280.330994
    370,   232.514343,  -240.876862
    371,   232.513336,  -300.050293
    372,   232.515015,  -329.678833
    373,   232.467896,  -270.409302
    374,   231.255325,  -152.089874
    375,   230.804901,   -132.33342
    376,   232.588303,  -231.023758
    377,   232.610168,  -211.438934
    378,   9.67903328,  -369.292267
    379,   130.323227,  -441.392517
    380,   160.008636,  -441.174988
    381,   10.2279024,  -188.982758
    382,    229.97522,   -439.99118
    383,   91.5099182,  -432.674316
    384,    10.511323,  -168.957291
    385,   9.98655224,  -199.084579
    386,   17.8291321,  -249.147568
    387,   140.229477,  -441.396973
    388,   180.015167,  -440.640991
    389,    71.509346,  -432.200745
    390,   61.3232803,   -431.74057
    391,   30.3080883,  -430.539215
    392,   20.1454411,  -430.283813
    393,    40.632206,  -430.796631
    394,   101.396957,  -432.786011
    395,   111.220116,  -432.861908
    396,   120.991135,  -432.910217
    397,   17.4504528,  -328.261108
    398,    169.98056,  -440.967316
    399,   18.0157013,  -239.177429
    400,   190.012039,  -440.324371
    401,   199.941208,  -440.061707
    402,   219.915314,  -439.915314
    403,    17.391407,  -318.471375
    404,   17.4339962,   -298.75473
    405,   17.6735821,  -259.216217
    406,   17.4703045,  -288.894165
    407,   9.72320652,  -209.224548
    408,   18.3357143,  -229.183838
    409,   17.3349762,  -308.668152
    410,   10.0988388,  -379.680359
    411,   10.2417698,  -390.026672
    412,   81.6167221,  -432.501251
    413,   10.2434006,  -400.183716
    414,   10.1927958,   -410.17511
    415,   10.1186914,  -420.150208
    416,   10.0457954,  -430.109955
    417,   51.0081062,  -431.199615
    418,    17.637392,  -347.869904
    419,   17.4544849,  -338.076477
    420,   17.5105095,  -279.032654
    421,    17.545517,  -269.184692
    422,   10.4662695,  -178.949844
    423,   18.7858486,  -219.101166
    424,   122.958817,   -106.78791
    425,   160.894806,  -110.997398
    426,   210.421783,  -112.338684
    427,   190.280563,  -111.905823
    428,   220.381714,  -112.494461
    429,    151.56517,  -111.226196
    430,   170.478271,  -111.187553
    431,   180.278687,  -111.550079
    432,   200.324722,  -112.167854
    433,   142.584076,  -112.203644
    434,   21.1524963,  -158.085373
    435,   115.759041,  -111.050766
    436,   96.0080948,  -137.170975
    437,   56.8290329,  -158.716202
    438,   77.7544022,  -149.593689
    439,   104.440086,  -131.020645
    440,   112.430626,  -125.366074
    441,   87.1840363,  -143.600983
    442,   67.5121689,  -154.165283
    443,   45.4199829,  -165.625748
    444,   230.309677,  -112.668755
    445,   230.378311,   -409.83783
    446,   231.796982,  -379.399323
    447,   232.329742,  -359.409821
    448,   223.852676,  -289.282471
    449,   223.846161,   -279.39209
    450,   223.823959,  -269.534332
    451,   223.818207,  -259.728577
    452,   223.918442,  -299.054016
    453,   223.926147,  -318.742615
    454,   223.967346,  -308.836823
    455,   223.928543,    -328.5466
    456,   223.897705,  -338.401245
    457,    223.86557,  -249.921051
    458,   223.405563,   -181.60466
    459,   223.866074,   -191.43428
    460,   223.950394,  -240.095596
    461,   224.115875,  -201.202454
    462,   224.163315,  -210.930161
    463,   224.110565,  -220.630615
    464,   224.049667,  -230.321472
    465,   222.858017,  -171.705383
    466,   222.250885,   -161.76387
    467,    221.72052,  -151.879456
    468,   221.332703,  -142.002609
    469,   221.013977,  -132.120331
    470,   230.763245,  -399.692108
    471,   232.133865,  -369.328613
    472,   231.264267,  -389.454651
    473,    230.08522,  -419.863831
    474,   19.9452171,  -198.678375
    475,   130.744797,   -432.93692
    476,   159.890594,  -432.506317
    477,   150.181427,  -432.732483
    478,   18.0341759,  -357.850677
    479,   209.882675,  -439.914948
    480,   21.4165077,  -167.915665
    481,   179.688583,  -431.383545
    482,   189.678894,  -430.514374
    483,   199.592316,  -429.805206
    484,   20.0042553,  -379.095642
    485,   20.3482285,  -389.940979
    486,   20.5970879,  -400.257355
    487,   20.6114883,  -410.235229
    488,   20.6209869,  -188.451889
    489,    21.223753,  -178.176987
    490,   30.8258533,  -420.521332
    491,   41.4235573,  -420.914368
    492,   52.0711784,  -421.724487
    493,    62.638916,  -422.628632
    494,   72.9080887,  -423.368347
    495,   82.9161148,  -423.869385
    496,   92.7420044,  -424.176849
    497,   102.477654,  -424.384064
    498,   25.8717899,  -327.582397
    499,   25.8905239,  -337.246246
    500,   25.9966831,  -346.829834
    501,    112.15052,  -424.516785
    502,   25.7615681,  -317.917694
    503,   121.721977,   -424.57959
    504,   26.5152721,  -249.415787
    505,   26.1377258,  -269.247772
    506,   26.0161572,  -279.051208
    507,    25.663414,  -308.253052
    508,    26.269289,  -259.465637
    509,   25.8586674,  -288.832153
    510,   25.6804237,   -298.57666
    511,     26.83358,  -239.490891
    512,   27.3294106,  -229.574066
    513,   18.8858185,  -368.251892
    514,   169.706436,  -432.125183
    515,   140.478958,  -432.911804
    516,   19.3397903,  -208.959717
    517,   210.778397,  -122.066467
    518,   200.660324,  -121.839104
    519,   190.584854,  -121.457939
    520,   180.657486,  -120.857841
    521,   171.038773,  -120.146759
    522,   153.209076,  -119.577316
    523,   161.867203,   -119.58371
    524,   145.068787,  -120.500626
    525,   134.386276,  -114.156242
    526,    32.836113,  -166.852753
    527,   229.988098,  -102.962906
    528,   119.974625,   -120.60186
    529,   53.2255783,  -170.698883
    530,   109.239136,  -139.097321
    531,    101.10675,  -145.081665
    532,   63.4271584,  -174.770645
    533,     92.60569,  -151.891922
    534,   70.9684601,  -163.090698
    535,   83.1723633,  -160.367416
    536,   220.154404,  -408.976715
    537,   211.295898,  -141.963989
    538,   223.366165,  -368.050781
    539,   210.977325,  -131.969009
    540,    223.63205,  -358.132599
    541,   211.811661,  -151.950089
    542,   220.960831,  -398.578766
    543,   215.260406,  -258.778961
    544,   215.347641,  -249.002533
    545,   214.943161,  -181.631638
    546,   212.823532,  -161.902908
    547,   215.449554,   -297.86673
    548,    215.52002,  -307.554321
    549,    214.01416,  -171.852692
    550,   215.382248,  -336.924133
    551,   215.455505,  -327.110718
    552,   221.956818,  -388.131561
    553,   215.400375,  -288.138428
    554,   215.287292,  -268.560944
    555,   215.363831,  -278.342957
    556,   215.514847,  -317.320099
    557,   215.545761,  -229.539734
    558,   215.719879,  -219.920944
    559,   215.465332,  -239.244171
    560,   215.922516,  -210.348511
    561,   215.691956,  -191.304688
    562,   216.034271,  -200.797287
    563,   223.789261,  -348.208496
    564,   222.793518,  -377.948425
    565,   219.783188,  -419.314392
    566,   28.7956791,  -209.311829
    567,   209.609085,  -429.570343
    568,   219.773987,  -429.667389
    569,   29.8256474,  -199.041382
    570,   131.237595,  -424.594727
    571,   220.694214,  -122.280823
    572,   35.6230354,  -240.317459
    573,   35.1647263,  -250.208679
    574,   26.3580227,  -356.490906
    575,   169.078369,  -423.612488
    576,   33.8992615,  -317.451721
    577,   34.0841827,  -326.983337
    578,   150.237808,   -424.26358
    579,   20.4325523,  -420.251099
    580,    159.64447,  -424.056641
    581,   31.4584942,  -400.027527
    582,   30.2226257,  -389.748413
    583,   34.2428246,   -336.48642
    584,   34.3248787,  -345.825623
    585,   188.674896,  -420.485352
    586,   198.749115,  -418.780396
    587,   34.3372879,  -279.457336
    588,   34.0527344,  -289.118042
    589,   33.7934837,  -298.604156
    590,   34.5494957,  -269.810028
    591,   33.6905708,  -308.002411
    592,   31.0227795,  -188.618042
    593,   34.8123398,  -260.126831
    594,    53.755661,  -412.136597
    595,   42.6547432,  -410.466736
    596,   31.4483757,  -410.154755
    597,   84.5890198,  -415.339996
    598,   94.2630005,  -415.752014
    599,   64.5221939,  -413.612671
    600,   30.2210712,  -378.027893
    601,   74.7637329,  -414.642609
    602,   103.793098,  -416.049805
    603,    113.26548,  -416.232025
    604,   27.4217129,  -366.604736
    605,   178.762512,  -422.339447
    606,   140.725723,  -424.526947
    607,    27.989706,  -219.531036
    608,    140.98851,  -130.157135
    609,   162.139969,    -127.9254
    610,   170.947845,  -129.078583
    611,   200.746597,  -131.790741
    612,   190.529694,  -131.356674
    613,    180.50148,  -130.366028
    614,   154.242035,  -127.228271
    615,   137.693542,  -122.669777
    616,   42.9614677,  -178.457321
    617,   10.4573898,  -159.196167
    618,   116.979713,   -133.86055
    619,   106.986176,  -152.800369
    620,   66.2569275,  -180.813736
    621,   99.6464081,  -159.199478
    622,   81.6458054,   -172.40123
    623,   93.5289841,  -166.403519
    624,   54.0246811,   -180.49588
    625,   209.223251,  -418.735992
    626,     200.7509,  -142.128296
    627,   201.249237,  -152.604813
    628,   215.011353,  -356.536987
    629,    206.79837,  -257.795898
    630,   209.338501,  -407.624756
    631,   206.733749,   -182.10817
    632,   206.900009,  -248.066544
    633,   211.046356,  -396.756927
    634,   205.529541,  -172.642944
    635,   203.365662,  -162.803665
    636,   214.621094,  -366.284149
    637,   206.824173,  -267.552612
    638,   207.914871,  -191.514435
    639,    207.14064,  -315.769165
    640,   207.182526,  -306.092438
    641,    207.05632,  -325.460083
    642,   207.113464,  -296.537567
    643,   206.892609,  -335.161865
    644,   207.001999,  -286.949951
    645,   206.917999,   -277.27066
    646,    207.14119,  -228.710556
    647,    207.40329,   -219.11496
    648,   207.031296,  -238.377686
    649,   213.937805,  -376.039429
    650,   207.813797,  -209.636108
    651,   208.265884,  -200.376953
    652,   212.760208,  -386.076447
    653,   215.216202,  -346.649231
    654,   37.0828743,  -220.470871
    655,   43.8257103,  -251.417038
    656,   44.4526558,  -241.702255
    657,   122.570625,  -416.235138
    658,   43.3688393,  -261.190643
    659,   39.4308968,  -200.156128
    660,   34.4876862,  -354.954376
    661,   41.8164711,  -316.973206
    662,   42.2729988,  -326.284119
    663,   38.1398277,  -210.445038
    664,   41.5302734,  -307.811493
    665,   42.7100372,  -335.700836
    666,   159.428406,  -415.480103
    667,   168.114059,  -415.714355
    668,   42.9600906,  -270.795593
    669,   42.5668907,  -280.315277
    670,   42.1645737,  -289.778442
    671,   41.7646217,  -298.908813
    672,   37.5206947,  -381.417877
    673,   39.4698868,  -388.667664
    674,   150.266434,  -415.770508
    675,    44.356308,  -398.673706
    676,   140.911499,  -416.212006
    677,   56.4573479,  -402.663269
    678,   76.9795151,  -406.008484
    679,   67.0514526,  -404.736328
    680,   105.330826,  -407.642914
    681,   186.190552,  -410.619629
    682,    86.627182,  -406.712708
    683,   96.0827713,  -407.215088
    684,   35.3916855,  -363.857269
    685,   176.924088,  -413.848785
    686,   131.794632,  -416.234863
    687,   36.3147087,  -230.548264
    688,     154.0056,  -134.363342
    689,   161.273987,  -136.129852
    690,    169.84549,  -138.071487
    691,   179.551743,  -140.183121
    692,   190.029266,  -142.006699
    693,   135.118942,  -133.631989
    694,   127.090523,  -116.933189
    695,   41.0984421,  -189.669754
    696,   114.652145,  -147.156845
    697,    206.27182,  -354.606628
    698,   194.448166,  -165.252029
    699,   198.426788,  -256.840088
    700,    197.91687,   -174.17981
    701,   198.364548,  -183.103378
    702,    198.42276,  -266.540192
    703,   196.992813,  -405.683563
    704,   205.772797,  -364.233948
    705,    198.51976,  -247.172775
    706,   198.465088,  -276.199646
    707,   198.579681,   -285.78064
    708,   201.520432,  -393.891022
    709,   198.656189,   -323.62561
    710,   198.871643,  -314.060669
    711,    198.78038,  -295.190918
    712,   198.942032,  -304.522491
    713,   198.330673,   -333.18219
    714,   205.115601,   -373.73233
    715,    200.86499,   -199.66391
    716,   198.637207,  -237.533752
    717,   198.812195,  -227.895966
    718,   199.117371,  -218.226151
    719,   203.961487,  -383.390228
    720,   199.694595,  -208.606995
    721,   206.599228,  -344.823975
    722,   46.1817932,  -221.982758
    723,   52.5797768,  -253.105469
    724,   53.3147888,  -243.487061
    725,   114.493553,  -407.949829
    726,   51.9663162,  -262.718781
    727,   49.5399704,  -316.307281
    728,   47.3525848,  -212.075562
    729,   42.8491096,  -344.967102
    730,   50.4771423,  -325.260925
    731,   49.0100327,  -307.744904
    732,   50.0166473,  -299.638702
    733,   140.993698,  -408.182251
    734,   160.165924,  -405.613068
    735,   50.7986183,  -281.490326
    736,   50.3697243,  -290.822052
    737,   51.3639297,  -272.189606
    738,   47.2574577,  -383.554504
    739,   42.8574791,  -377.276764
    740,    52.729084,  -389.566925
    741,   149.979568,  -407.294159
    742,   48.9494057,  -371.932465
    743,   60.8956413,  -393.687592
    744,   44.5815506,  -367.313446
    745,   70.1595764,  -395.987549
    746,   98.1379318,  -398.463379
    747,   173.514771,  -406.063568
    748,   79.5342407,  -397.228851
    749,   132.574509,  -407.452026
    750,   88.8682861,  -397.947876
    751,   42.5110703,  -361.663818
    752,   181.058014,  -401.966644
    753,   123.427933,  -407.693481
    754,   45.2808418,  -231.983398
    755,   32.2215347,  -177.901428
    756,   158.805099,   -144.25322
    757,   145.187637,  -136.447617
    758,   167.470596,  -146.974258
    759,   177.294403,  -149.935165
    760,   188.993896,  -154.429153
    761,   124.180649,    -129.4095
    762,   120.521759,   -155.06752
    763,    122.06369,   -142.12648
    764,   73.0123367,  -181.391617
    765,   113.371765,  -160.467331
    766,   90.0574493,  -174.680801
    767,   106.877708,  -166.319717
    768,    62.746727,   -186.61351
    769,   197.320007,  -352.396423
    770,   190.036835,  -265.506714
    771,   186.933594,  -170.634705
    772,     186.5961,  -184.069733
    773,   191.977814,  -177.639252
    774,   189.966141,  -275.096466
    775,   190.124725,  -255.949387
    776,   196.603195,  -362.010864
    777,   190.010864,  -284.652039
    778,   190.335403,  -293.931854
    779,   190.758316,  -302.957184
    780,   190.690155,  -312.289948
    781,   190.185196,  -246.372025
    782,   190.250031,  -321.598602
    783,   189.634613,  -330.939911
    784,   196.061844,  -371.333374
    785,   192.912613,  -389.121185
    786,   190.290405,  -236.759247
    787,   195.673721,  -380.334381
    788,   190.538208,  -227.127548
    789,   193.154877,  -196.202972
    790,   191.537521,  -207.111374
    791,    197.84845,  -342.725861
    792,   62.0915833,  -245.505188
    793,   55.2458267,  -223.909088
    794,   61.3391991,  -255.110916
    795,   56.5022278,  -214.138702
    796,   57.3112907,  -314.819336
    797,   107.282166,  -398.927856
    798,   51.7558136,  -344.492035
    799,   58.7768173,  -323.590607
    800,   59.7507019,  -301.838531
    801,   60.6716003,  -264.639038
    802,   58.4151726,  -291.849365
    803,   134.598129,  -396.883484
    804,   148.018036,        -399.
    805,   58.9743767,  -282.991791
    806,   59.9311256,  -274.014465
    807,   53.7077217,  -376.852997
    808,    54.279747,  -364.996124
    809,   65.2509766,  -385.473358
    810,   156.159134,  -396.676758
    811,   57.9998207,  -355.714905
    812,   168.248856,  -399.635284
    813,    91.087265,  -389.163513
    814,   73.2711868,  -387.415558
    815,    50.476059,  -353.943542
    816,   123.594498,  -399.306305
    817,   82.0338211,  -388.489716
    818,   175.254684,  -394.824738
    819,   115.802139,  -399.834106
    820,   54.2139244,  -233.803207
    821,   151.318283,  -140.927856
    822,    163.97522,  -155.906754
    823,   173.200928,  -158.873001
    824,   128.902618,  -137.644394
    825,   127.818764,  -150.130783
    826,   119.539848,  -167.885666
    827,   48.8101006,  -202.036667
    828,   181.575592,  -264.421844
    829,   181.743134,  -255.105164
    830,   179.024765,  -177.669601
    831,   188.159958,  -349.881287
    832,   176.300568,  -186.861252
    833,   181.336731,  -273.886292
    834,    187.04689,  -359.623505
    835,   181.822083,  -245.668152
    836,   181.157028,   -283.62674
    837,   181.646408,  -319.192627
    838,   182.601486,  -310.419586
    839,   181.614975,  -293.041779
    840,   180.656097,  -328.312531
    841,   187.975845,  -396.601959
    842,   185.394409,  -370.055756
    843,   182.598953,  -194.235275
    844,    181.89505,  -236.026932
    845,   185.512741,   -383.60083
    846,   188.973129,  -378.413269
    847,   182.217133,  -226.387192
    848,   182.865509,  -216.718964
    849,   183.336517,  -206.450226
    850,   188.905518,   -340.32132
    851,    70.672081,  -247.570892
    852,   64.1647186,  -226.111816
    853,   65.5694962,  -216.504852
    854,   69.9666672,   -257.14267
    855,   64.8166428,  -311.522736
    856,   67.2170258,  -321.011444
    857,   60.0241737,  -333.277191
    858,   100.260818,  -389.653015
    859,    68.943428,  -298.124512
    860,   69.4078445,  -266.720795
    861,   58.5786552,  -381.955872
    862,   144.374451,  -390.999023
    863,   67.4560547,  -285.557892
    864,    68.785553,  -276.368896
    865,   60.9907112,  -369.276154
    866,   131.270294,  -387.818268
    867,   65.0754471,  -358.818878
    868,    61.748291,  -344.473938
    869,   159.994675,  -386.502045
    870,   69.2783508,  -350.513885
    871,   68.6053543,   -377.62793
    872,   163.628128,  -393.022095
    873,   84.2556458,  -379.774567
    874,   119.969383,  -391.641846
    875,   170.048019,  -388.623566
    876,   109.645683,  -390.272675
    877,   63.0156746,   -235.87001
    878,   154.876633,  -152.625839
    879,   169.714066,  -167.664322
    880,   140.313354,  -140.873062
    881,   176.567276,  -169.407639
    882,   126.416588,  -162.707565
    883,   113.404617,  -173.450134
    884,   173.147095,  -254.217987
    885,   172.827972,  -263.198608
    886,   168.808914,  -177.359512
    887,   173.461243,  -245.058884
    888,   178.864624,  -347.016052
    889,   177.545731,  -356.254486
    890,   172.643127,  -272.483673
    891,   168.259476,  -188.791229
    892,   172.841202,  -316.213959
    893,   167.853821,  -360.441589
    894,    174.41452,   -307.74176
    895,   172.125031,  -282.584015
    896,   176.483093,  -301.373413
    897,   173.388458,  -235.332306
    898,   179.251236,  -377.220581
    899,   173.722549,  -197.960312
    900,   173.522583,  -225.489182
    901,   175.276566,  -383.499878
    902,   174.773544,  -216.208313
    903,   175.795715,  -207.229309
    904,   179.716797,  -337.592682
    905,   72.8293381,  -228.463943
    906,   74.4079285,  -219.070404
    907,   76.1389236,  -318.190674
    908,   78.3069916,   -258.98111
    909,   73.4900131,  -307.781708
    910,   68.7969666,  -330.428589
    911,   93.0722198,  -380.274048
    912,   76.6259537,  -291.055359
    913,   62.9674225,  -376.226959
    914,   70.6676788,  -338.951202
    915,   77.8406754,  -268.535858
    916,   141.222977,  -380.485687
    917,   77.4345551,  -278.682556
    918,   69.9721375,  -369.676636
    919,   151.601013,  -380.548584
    920,   120.440926,  -381.696564
    921,   72.2276993,  -361.375061
    922,   73.1725311,  -344.745514
    923,    102.15818,  -380.696594
    924,   111.414215,  -381.206146
    925,   157.764435,   -381.28653
    926,   165.525925,   -382.75296
    927,   85.9393005,  -371.023743
    928,   71.5987701,  -238.025757
    929,   160.576553,  -165.472412
    930,   141.166397,  -153.197891
    931,     181.5121,  -163.365555
    932,   58.0533638,  -204.434097
    933,   125.147705,  -174.846375
    934,   133.943039,  -157.893509
    935,    119.15963,  -180.300873
    936,   107.867104,  -179.087799
    937,     139.3246,  -165.563461
    938,   163.395996,  -261.895599
    939,   163.991608,  -252.950592
    940,   164.043854,   -270.90921
    941,   170.313751,  -334.707703
    942,   169.405212,  -344.220154
    943,   165.442307,  -244.500656
    944,   163.056885,  -280.376587
    945,   164.375412,  -312.672974
    946,    168.51152,  -353.266327
    947,   166.828293,  -303.470337
    948,   171.438629,  -293.885284
    949,   162.568192,  -197.379974
    950,   169.649658,  -372.160583
    951,   165.041611,  -235.060059
    952,   163.638733,  -224.167252
    953,   162.818192,  -207.164185
    954,   166.248367,  -214.353012
    955,   171.434586,  -325.378113
    956,   81.2322845,  -230.864151
    957,   86.3864975,  -260.574921
    958,   85.1359406,  -316.185059
    959,   77.7609329,   -327.92099
    960,   83.3853302,  -303.781738
    961,   86.0346451,  -269.820648
    962,   79.0792389,  -336.719604
    963,    94.647316,  -371.322632
    964,   86.3194962,  -289.072815
    965,   85.8807373,  -279.392639
    966,   79.5134277,  -345.145264
    967,   132.158112,  -374.553741
    968,   145.637482,  -369.322876
    969,   78.8323975,  -362.445984
    970,   122.510689,  -372.612427
    971,   77.5494461,  -354.265442
    972,   79.9374161,   -240.15242
    973,   154.821671,  -372.246552
    974,   113.044212,  -371.971283
    975,   103.693718,  -371.617157
    976,   161.736481,   -376.81485
    977,   149.319809,  -162.379059
    978,   67.3100967,  -207.099213
    979,    60.008667,  -195.001404
    980,   113.205223,  -186.066071
    981,   77.6653366,  -370.563721
    982,   180.985687,  -389.538147
    983,   124.938065,  -186.725632
    984,   170.057465,  -379.585358
    985,   159.307159,  -186.163345
    986,   158.188858,  -193.541412
    987,   149.035965,  -175.650208
    988,   156.826675,  -270.219116
    989,   88.0927887,  -242.229767
    990,     158.9991,  -243.619812
    991,   160.440048,  -331.767487
    992,   154.024216,  -276.982086
    993,   159.801666,   -342.16217
    994,   159.665924,  -352.418793
    995,    155.93924,  -308.705811
    996,    161.16597,  -289.894379
    997,   158.447708,  -299.265198
    998,    157.24411,  -236.368896
    999,   152.507111,  -195.983047
   1000,   89.4763565,  -233.274033
   1001,   154.698669,  -227.593246
   1002,   158.302353,  -215.782166
   1003,   155.951782,  -205.489502
   1004,   162.252701,   -322.11261
   1005,   160.214325,  -363.679138
   1006,   94.2693787,   -261.92041
   1007,   94.6344223,  -306.288116
   1008,    87.465683,  -335.768127
   1009,   86.4917603,  -326.424805
   1010,   95.7158813,  -297.642761
   1011,   87.0522079,  -251.333054
   1012,   87.6763077,  -344.912476
   1013,   95.2547684,  -288.678345
   1014,   135.686417,   -363.93576
   1015,   124.214294,  -363.180389
   1016,   87.2310028,  -353.782227
   1017,   86.9627304,  -362.303802
   1018,   114.225639,  -362.758392
   1019,     149.8022,  -360.910645
   1020,    104.77092,  -362.537811
   1021,   95.6864624,   -362.39624
   1022,   82.9348602,  -221.777451
   1023,    69.340889,  -198.147247
   1024,    119.60862,  -192.721954
   1025,   159.350815,  -176.034241
   1026,   102.698143,  -183.964615
   1027,   50.7594414,  -191.803192
   1028,   144.692566,  -189.211044
   1029,    151.95311,  -261.911591
   1030,   153.740616,  -249.549957
   1031,   96.1671448,  -244.361115
   1032,   97.7595901,  -235.695084
   1033,   145.823349,  -271.850861
   1034,   149.577972,  -328.802887
   1035,   150.473511,  -239.132263
   1036,   150.475372,  -341.110809
   1037,   151.573669,  -285.821594
   1038,   150.705978,  -351.424652
   1039,   147.362686,  -304.668976
   1040,   149.405121,  -295.264496
   1041,   147.087952,  -231.017929
   1042,    150.65271,  -218.846008
   1043,   145.169571,  -208.554214
   1044,   153.451904,  -318.315948
   1045,   151.485214,  -186.783066
   1046,   95.4347916,  -325.763245
   1047,   102.664177,  -270.953308
   1048,   104.228256,  -297.922241
   1049,    94.630928,  -315.982361
   1050,   96.1113892,  -335.247955
   1051,   103.979248,  -288.746735
   1052,   94.9159241,  -253.058777
   1053,   103.438011,  -279.714111
   1054,   96.3692703,  -344.557159
   1055,   133.433197,  -352.701935
   1056,    124.14257,  -353.394348
   1057,    96.186882,  -353.560486
   1058,   142.635727,  -358.622925
   1059,   114.604408,  -353.490692
   1060,   105.245735,  -353.507782
   1061,   136.295959,  -176.493561
   1062,    91.195755,  -224.587143
   1063,   76.4131851,  -209.902252
   1064,   71.4980698,  -189.843964
   1065,   131.022476,  -192.305817
   1066,   88.9303436,  -183.597748
   1067,   106.010452,  -192.075607
   1068,   141.322693,  -181.952469
   1069,   137.824783,  -196.467102
   1070,   80.5523758,   -192.09317
   1071,   140.952148,  -257.156525
   1072,   106.084343,  -238.080872
   1073,   136.894836,  -266.581146
   1074,   143.273468,  -247.983215
   1075,   104.193756,  -246.778152
   1076,   142.029709,  -320.668182
   1077,   142.143616,  -281.468353
   1078,   139.885834,    -332.2547
   1079,   140.112366,  -291.657806
   1080,   141.402466,  -341.801117
   1081,   138.573486,  -234.798035
   1082,   138.670563,  -301.339386
   1083,   143.693237,  -223.238815
   1084,   134.981323,  -203.823227
   1085,   137.983383,  -216.295593
   1086,   104.049385,  -316.219849
   1087,   104.960625,  -335.008392
   1088,   111.631638,  -269.701904
   1089,    112.72316,  -288.789551
   1090,   103.993729,  -306.984924
   1091,   112.101082,  -279.569702
   1092,    102.50312,  -254.835022
   1093,   123.469063,  -343.770721
   1094,   114.355789,   -344.14856
   1095,   132.361389,  -343.000153
   1096,   99.2153244,  -227.340118
   1097,   78.6763535,  -200.973022
   1098,   85.1949997,  -212.938583
   1099,     114.3125,  -199.213608
   1100,   100.949486,  -200.416336
   1101,     91.28508,  -194.170303
   1102,   131.087509,  -333.853455
   1103,     126.8283,   -198.65004
   1104,   114.856224,  -242.024048
   1105,   128.313095,  -260.421082
   1106,    131.86911,  -252.070679
   1107,   131.355789,  -276.903381
   1108,   135.820801,  -317.508911
   1109,   134.901382,  -243.524216
   1110,   136.688492,  -324.182648
   1111,   112.376274,  -250.209091
   1112,   130.050385,  -299.329559
   1113,   129.454437,   -230.79953
   1114,   135.428665,  -186.572571
   1115,   132.671021,  -223.210968
   1116,     130.4133,  -210.902191
   1117,   112.913612,  -316.459076
   1118,   113.249702,  -325.635651
   1119,   113.777542,  -334.873291
   1120,   105.223312,  -344.366852
   1121,   112.797729,  -307.308716
   1122,    121.07766,  -279.499023
   1123,    121.71228,  -288.873627
   1124,   109.959808,  -257.536224
   1125,   122.500809,  -334.583801
   1126,   108.014267,  -228.036621
   1127,   93.6390533,  -216.510147
   1128,   109.635277,   -206.48645
   1129,   96.9739609,  -208.488708
   1130,   121.519089,   -298.46817
   1131,   105.472351,  -213.986328
   1132,   122.332611,    -205.3423
   1133,   120.217415,  -254.819489
   1134,   119.093292,  -272.151917
   1135,   123.374062,  -246.888916
   1136,   129.256226,  -308.387512
   1137,   128.841629,   -316.97345
   1138,    126.41684,  -238.720703
   1139,   121.303574,   -225.76265
   1140,     125.5578,  -218.179688
   1141,   121.147873,   -316.69751
   1142,   121.165878,  -307.686249
   1143,   121.581551,  -325.602631
   1144,   117.698959,  -233.583603
   1145,   101.644913,  -220.818863
   1146,   88.0217209,  -204.052521
   1147,   129.486435,  -325.272308
   1148,   113.149231,  -220.082428
   1149,   137.210297,  -310.101715
   1150,   240.035278,   -103.09922
   1151,   60.8792686,  -166.700577
   1152,   130.946976,  -125.698868
   1153,   72.6526489,  -172.548737
   1154,   147.185089,  -127.627914
   1155,   38.2063675,  -371.549072
   1156,   148.724792,  -132.907791
   1157,   134.517502,  -145.487778
   1158,   81.1157074,  -182.590546
   1159,   101.442772,  -172.373642
   1160,   48.4562035,  -361.972839
   1161,   75.9173584,  -378.906891
   1162,   97.2184296,  -178.345596
   1163,   42.5569267,  -353.778839
   1164,   167.401443,  -409.302856
   1165,    94.579567,  -183.417175
   1166,   98.2531891,  -188.603043
   1167,   146.922623,  -147.270828
   1168,   174.941589,  -364.843964
   1169,   141.220734,  -401.441589
   1170,   200.759369,  -192.343796
   1171,   131.635773,  -169.870636
   1172,    51.354435,  -334.756622
   1173,   192.521423,  -187.552658
   1174,   152.862518,  -388.789581
   1175,   130.425308,  -181.205917
   1176,   78.9735565,  -249.506958
   1177,   141.499084,  -172.462982
   1178,   167.149628,  -202.339966
   1179,    117.73307,  -212.524048
   1180,   128.059921,  -381.635956
   1181,   170.095673,  -207.803406
   1182,   190.965652,  -217.367386
   1183,   139.414749,  -190.714066
   1184,   145.365936,    -197.6483
   1185,   55.2151833,  -308.131073
   1186,   141.951111,  -351.161987
   1187,   94.3216705,  -270.677826
   1188,    94.647049,  -279.662354
   1189,   104.385666,  -325.635895
   1190,   101.662018,  -262.883423
   1191,   145.172363,  -313.578827
   1192,   182.904495,  -301.674622
   1193,   64.8515625,  -291.738525
   1194,   88.4843979,  -296.920074
   1195,   107.593094,  -263.172913
   1196,    138.35701,  -226.881851
   1197,   112.839867,  -298.107086
   1198,   116.639961,  -262.067261
   1199,   144.424805,  -240.779343
   1200,    130.80928,  -289.254333
   1201,   123.877602,   -267.64032
   1202,   131.321381,  -86.2358704
   1203,   241.208755,   79.6675644
   1204,    240.97287,   -6.5796175
   1205,   240.836349,   13.0587053
   1206,   240.975937,  -26.1050491
   1207,   240.961731,  -35.7894707
   1208,   241.010803,  -16.3667927
   1209,   240.629654,  -55.0475235
   1210,    240.25087,  -74.2872925
   1211,   240.856766,  -45.4136925
   1212,   240.964539,   3.21148562
   1213,   240.537582,   23.0499382
   1214,   240.173676,   33.0399323
   1215,   239.974426,    43.136734
   1216,   236.419724,   54.5788269
   1217,   135.191177,   77.8018799
   1218,   151.945618,   41.4841995
   1219,    131.31723,   85.9161453
   1220,   135.858124,  -78.0406952
   1221,   139.415176,   69.4146881
   1222,   140.580826,  -69.7178497
   1223,   156.395065,  -20.9249573
   1224,   154.372375,   31.3071156
   1225,   157.806625,  0.144818708
   1226,   157.439743,  -10.4043951
   1227,   156.204636,   21.0178585
   1228,   148.815964,    51.622097
   1229,   144.997925,  -60.8143196
   1230,   154.528778,  -31.2879238
   1231,   144.627319,   61.3429794
   1232,   157.360855,   10.6301737
   1233,   199.766968,  -84.5289383
   1234,   140.681198,   85.8972702
   1235,   140.094482,  -86.8733368
   1236,   169.094055,  -84.7043381
   1237,   209.831604,  -84.4301529
   1238,   199.336945,   84.2173843
   1239,    209.31955,   83.7079239
   1240,   159.743835,   85.0302658
   1241,   150.099915,   85.4941864
   1242,   179.439575,   84.5750504
   1243,   189.357544,   84.4734879
   1244,   189.664993,   -84.571167
   1245,    219.91922,  -84.2820435
   1246,   149.399261,  -86.8461151
   1247,   158.826523,   -85.299057
   1248,   179.470306,  -84.5804062
   1249,   230.005753,   -84.098381
   1250,   219.414169,     82.80336
   1251,   143.638855,  -79.2247849
   1252,   240.078827,  -83.8806458
   1253,   240.473251,  -64.6754074
   1254,   238.753601,   66.8784714
   1255,   232.677277,   40.9262581
   1256,   231.457352,   21.1716537
   1257,   232.045639,  -8.26586151
   1258,   229.833267,   31.9413204
   1259,   232.065979,  -27.6004448
   1260,   232.021118,  -37.0601158
   1261,   232.071976,     1.475299
   1262,   232.075699,  -17.9980755
   1263,   231.956284,   11.1881914
   1264,   231.723877,  -46.4025269
   1265,   227.708221,   46.4039307
   1266,    151.98999,  -41.4260826
   1267,   169.541763,   84.7632828
   1268,    152.06424,   76.7159348
   1269,   210.526474,  -75.3022156
   1270,   190.686081,  -75.5241928
   1271,   199.356445,   75.1712723
   1272,   180.247482,   75.4825363
   1273,   157.937347,  -75.6602859
   1274,   230.395157,  -74.7236176
   1275,    189.80101,   75.4566956
   1276,   208.880829,   74.4375687
   1277,   143.393677,   77.9707184
   1278,   200.689667,  -75.4113693
   1279,   180.501831,   -75.564476
   1280,   220.466125,  -75.0607758
   1281,    169.86412,  -75.6246414
   1282,   144.506866,   71.3302841
   1283,   159.496338,   43.0924263
   1284,   161.989655,   32.6238785
   1285,   164.209259,  -21.7436905
   1286,   164.026077,   22.0370922
   1287,   165.383713,  -10.7265224
   1288,   162.238876,  -32.5027351
   1289,   165.405472,   11.2889814
   1290,   152.948517,  -62.9772186
   1291,   165.818771,  0.327564061
   1292,   156.392929,   53.8270988
   1293,   231.266632,  -55.8446274
   1294,    223.23819, -0.202297702
   1295,   223.105148,  -9.94122887
   1296,   223.271912,   9.22275162
   1297,   223.084717,  -19.6903305
   1298,   222.718262,   18.5593166
   1299,   223.158859,   -29.132164
   1300,    221.17366,   26.9621964
   1301,   223.259415,  -38.1977119
   1302,   218.556274,     32.89711
   1303,   222.308487,   38.6706924
   1304,   225.589493,   60.2549057
   1305,   228.362503,   70.2372894
   1306,   170.660675,    75.593811
   1307,   171.763901,  -65.9257965
   1308,    190.31189,   66.3379059
   1309,   221.091354,    -65.73172
   1310,   192.042664,  -65.9736862
   1311,   181.984528,  -65.9807053
   1312,   201.867828,  -65.8838425
   1313,   211.426865,  -65.9075775
   1314,   199.268814,   66.3874969
   1315,   208.047607,   65.8463821
   1316,   161.168182,   75.9221878
   1317,   159.695267,   -42.966526
   1318,   162.441284,   65.7428513
   1319,   161.750534,   -65.019455
   1320,   172.063217,  -22.5134163
   1321,   173.414215,  -11.0797739
   1322,   174.173401,  0.509573698
   1323,   173.900528,   12.1372414
   1324,    172.04155,    23.280632
   1325,   167.327469,   44.5118752
   1326,   164.689438,   55.0821114
   1327,   156.600906,  -53.1624184
   1328,   212.138306,   33.1151199
   1329,   213.276749,   43.0541916
   1330,    213.04129,   24.6589851
   1331,   214.019455,  -21.3720455
   1332,   214.244904,   16.3834515
   1333,   214.198898,  -11.4242563
   1334,   230.855148,  -65.2946014
   1335,   213.988983,  -30.9566135
   1336,   214.456314,  -1.53403831
   1337,   214.846115,    7.5010128
   1338,   222.826614,  -46.9996796
   1339,   220.408157,   51.5154457
   1340,   216.609085,   63.9137573
   1341,   181.156036,   66.1307526
   1342,   221.924286,  -56.3246498
   1343,   193.719315,  -55.7919273
   1344,   212.596054,  -56.2911339
   1345,   203.520294,  -55.6605034
   1346,   176.310577,  -45.2474976
   1347,   207.183838,   58.0696106
   1348,   199.518677,   57.7316513
   1349,   171.857697,    65.908638
   1350,    170.11322,  -33.5417366
   1351,   229.854706,   81.4318619
   1352,   179.992859,  -23.1554222
   1353,   181.452682,  -11.5277166
   1354,   182.756073,  0.456728578
   1355,   180.045181,   25.0452881
   1356,   183.368195,    13.445323
   1357,   177.668869,   35.5600395
   1358,   183.947464,   46.8960152
   1359,   164.983902,    -54.73032
   1360,    202.95903,   40.7358971
   1361,   182.349533,   56.5706863
   1362,   204.061401,   31.8721466
   1363,   205.657684,  -12.5673342
   1364,   205.281982,   23.0226326
   1365,   205.198959,  -22.7344646
   1366,   205.564987,  -1.94365048
   1367,   206.466141,   14.7024775
   1368,   207.380966,   6.56389999
   1369,   214.648071,  -39.4656754
   1370,    213.66153,   56.2376022
   1371,   191.088791,    57.193882
   1372,   195.186096,   -45.143734
   1373,   185.429413,  -45.4688225
   1374,   205.997452,  -43.9627762
   1375,   200.857407,   49.2491722
   1376,   167.749817,  -44.2177467
   1377,   197.280075,  -13.3323946
   1378,   197.675507,   21.0657425
   1379,   195.856171,   29.9502983
   1380,   198.208817,  -5.00974464
   1381,   198.993362,    12.816659
   1382,   200.757935,   4.70176506
   1383,   205.042938,   -33.047451
   1384,   192.409515,   48.0263786
   1385,    214.36792,  -46.8754921
   1386,   186.823532,  -34.6988449
   1387,   195.818756,  -34.2734566
   1388,   194.101639,   38.9678574
   1389,   188.020935,  -23.5374756
   1390,   189.338501,  -12.2533388
   1391,   190.388733,   18.7628841
   1392,    187.77179,   27.6572342
   1393,   185.693558,   37.2568398
   1394,   191.445267,   11.1338348
   1395,   178.276291,  -34.2619743
   1396,   192.032013,  -0.19192791
   1397,   148.805725,  -51.2691383
   1398,   148.625397,  -71.7398911
   1399,    218.47084,   72.8503571
   1400,   149.849319,  -80.9911804
   1401,   152.361572,   65.9536667
   1402,   173.471832,   55.9187584
   1403,   174.089706,  -55.6276932
   1404,   169.721634,   34.0238037
   1405,   183.767853,   -55.826252
   1406,   175.458023,   45.7800484
   1407,   208.518784,   51.2565842
   1408,   196.438461,  -23.4709015
   1409,    240.86235,   182.023254
   1410,   240.923019,   191.971603
   1411,   240.978073,   201.911102
   1412,   241.005219,   211.823166
   1413,   241.035492,   221.756744
   1414,   241.053131,   231.650711
   1415,   241.039185,   261.344208
   1416,   241.068069,   281.177734
   1417,   241.066895,   320.804962
   1418,   240.280334,   430.466309
   1419,   240.950546,   360.435394
   1420,   241.034683,   350.529633
   1421,   241.070251,   340.638519
   1422,    241.08017,   330.729065
   1423,   241.075928,   310.924652
   1424,   241.072311,   300.995636
   1425,   241.091721,   291.102173
   1426,   241.072617,   271.278412
   1427,   241.060165,   251.458954
   1428,   241.075882,   241.581635
   1429,   9.27475643,   270.316864
   1430,   9.06463814,    310.31076
   1431,   8.96674442,   330.212311
   1432,   8.90809727,   350.109955
   1433,   220.549088,   440.646912
   1434,   200.911667,   440.971832
   1435,   121.445702,   441.204803
   1436,   101.538643,   441.137817
   1437,   91.6016083,   441.059692
   1438,   9.02513885,   380.099213
   1439,   71.5710678,   440.502563
   1440,   9.09910583,   390.101288
   1441,   8.94765282,   370.081909
   1442,   9.23401642,   400.186066
   1443,    40.174305,   439.406128
   1444,   9.52737522,   420.351166
   1445,   9.65147209,   430.280426
   1446,   29.8153801,   439.883362
   1447,   9.80888271,   440.157501
   1448,   9.37710476,   410.286774
   1449,   61.2874069,   439.743988
   1450,   8.89434719,   360.070801
   1451,   111.488144,   441.179962
   1452,   8.90406418,   340.142242
   1453,   8.98829079,   320.250336
   1454,   9.09792995,   300.345154
   1455,   9.14796638,   290.349182
   1456,   9.19929981,   280.304504
   1457,   9.31333542,   260.248596
   1458,   9.32142544,   250.198914
   1459,   9.29168415,   240.158585
   1460,   9.23874187,   230.142548
   1461,   9.22337914,   220.107651
   1462,   9.40263081,   209.991135
   1463,   9.93918324,   199.745972
   1464,   10.6055479,   189.484634
   1465,   11.0715332,   179.249191
   1466,   11.0286694,   169.225006
   1467,   139.658707,   103.962868
   1468,   169.490234,   102.809212
   1469,   130.475479,   105.380928
   1470,   149.402252,   103.274681
   1471,   179.617294,   102.757919
   1472,   189.746063,   102.725845
   1473,   159.395325,   102.939743
   1474,   99.1311722,   123.584076
   1475,   115.201591,   111.964127
   1476,   90.6661911,   129.555542
   1477,   62.9107437,   145.270859
   1478,   72.5421524,   140.503922
   1479,   32.1720314,   156.202347
   1480,   21.5110931,   158.120773
   1481,   107.294304,   117.596802
   1482,   52.9434128,   149.552292
   1483,   42.6863708,   153.298965
   1484,   81.8014297,   135.224976
   1485,   240.856079,     370.4245
   1486,   240.808228,   172.091385
   1487,   240.550735,   142.384018
   1488,   240.344299,    122.63559
   1489,   240.223602,   112.808502
   1490,   240.642105,   152.270538
   1491,   240.725464,   162.192657
   1492,   232.279587,   300.788818
   1493,   232.296356,   330.482025
   1494,   240.342575,   400.492889
   1495,   240.485016,    390.48349
   1496,   240.687241,   380.446747
   1497,   232.251099,   261.160553
   1498,   232.289352,   271.093536
   1499,   232.245743,   231.471207
   1500,   232.198456,   211.658569
   1501,   232.264221,     221.6465
   1502,   232.255676,   251.276535
   1503,   240.293839,   420.529541
   1504,    232.15126,   360.062683
   1505,   232.280899,   350.211823
   1506,   232.314713,   320.609039
   1507,   232.296768,   290.895447
   1508,   232.331909,   310.778046
   1509,   240.285416,   410.512146
   1510,   232.341476,   340.399933
   1511,   232.311096,   281.033203
   1512,    232.01828,   191.807877
   1513,   240.452881,   132.506882
   1514,   232.160782,   201.787704
   1515,   232.276276,   241.430954
   1516,   210.727646,   440.813171
   1517,   191.010193,     441.1409
   1518,   81.6609726,   440.869629
   1519,    50.866291,   438.903046
   1520,   19.7425842,    440.12088
   1521,   17.8024368,   379.934052
   1522,   131.395081,   441.244263
   1523,   141.336517,   441.282684
   1524,   161.213074,   441.323029
   1525,   171.116196,    441.31958
   1526,   181.049866,   441.275482
   1527,   17.8016415,   320.256775
   1528,   122.820747,   432.383453
   1529,    17.679697,    369.90979
   1530,   73.6554565,   431.332123
   1531,   39.7798195,   428.960602
   1532,   19.0107174,   420.388855
   1533,   19.4109211,    430.28064
   1534,   18.0269222,   300.428802
   1535,   18.4657955,   250.098969
   1536,   18.3309708,   240.002777
   1537,   18.1111221,   230.017258
   1538,   18.1261616,   290.421997
   1539,   151.273666,   441.322266
   1540,   18.4609966,   260.216156
   1541,   112.928368,   432.340302
   1542,   17.6475582,   340.053864
   1543,   103.095207,   432.279175
   1544,   17.6135311,   359.916565
   1545,   29.3456135,   429.866302
   1546,    18.582201,    410.28299
   1547,   18.2112808,   400.077026
   1548,   17.9354248,   389.928131
   1549,   17.5807991,   349.919983
   1550,    17.665926,   330.093536
   1551,    17.854763,   310.267548
   1552,   18.3800812,   270.339355
   1553,   18.2337856,   280.361359
   1554,   19.1660576,   200.181839
   1555,   17.8594608,   220.106506
   1556,   17.9527607,   210.283951
   1557,   22.6313171,   178.832779
   1558,   21.0055542,   189.749664
   1559,   199.841064,   102.710312
   1560,   190.556427,   112.164574
   1561,   209.918304,   102.723366
   1562,   160.594086,   112.430992
   1563,   180.498047,   112.153938
   1564,   219.983704,   102.772285
   1565,   230.028427,   102.877106
   1566,   170.450424,   112.209694
   1567,   141.869507,   114.215508
   1568,   150.949844,   113.050194
   1569,   122.522163,   107.799644
   1570,   93.8169937,   137.848022
   1571,   118.425468,   122.458321
   1572,    22.369669,   168.272232
   1573,   55.5051193,   158.251556
   1574,   75.4587631,   148.561356
   1575,   110.535919,   127.057198
   1576,   65.6855469,   153.514511
   1577,   84.8530197,   143.281998
   1578,   44.8995247,   162.818512
   1579,   33.7557106,   166.649399
   1580,   231.664749,   171.800674
   1581,   231.566605,   380.113495
   1582,   240.052658,   103.044411
   1583,    231.24054,   151.899765
   1584,   230.856155,   132.135101
   1585,   231.036804,   142.029922
   1586,   230.536362,    410.57724
   1587,   230.571121,   400.390564
   1588,    231.01561,   390.268402
   1589,   231.430603,   161.880966
   1590,    230.63208,   122.291885
   1591,   223.658173,   291.041595
   1592,   223.706161,    300.97406
   1593,   223.718872,   320.666779
   1594,   223.763382,   310.906799
   1595,   223.740295,   330.515503
   1596,   223.607178,   359.710114
   1597,   223.732574,   350.001221
   1598,   223.781113,   340.324646
   1599,   223.656906,   281.195435
   1600,    223.51767,   202.082443
   1601,   223.659927,   271.288727
   1602,   223.607071,   251.514877
   1603,   223.662064,    261.46167
   1604,   223.602386,   241.653488
   1605,   223.624542,   211.993347
   1606,   223.618729,   231.741699
   1607,   223.661163,   221.922775
   1608,   231.864609,   181.831558
   1609,   231.958328,   370.055145
   1610,   220.850967,   431.025269
   1611,   201.491241,   431.859436
   1612,   93.2988586,   432.178558
   1613,   132.694519,    432.44928
   1614,   63.4841957,   429.904144
   1615,   162.292389,   432.697693
   1616,   172.053986,   432.748138
   1617,   181.890198,   432.690857
   1618,   152.456696,   432.617279
   1619,   27.0163612,   280.109619
   1620,   26.8065395,   290.092743
   1621,    27.174345,   270.013672
   1622,   37.9840012,   418.796112
   1623,   27.5541153,   409.783783
   1624,   26.8946819,   399.550385
   1625,   26.5308552,   389.423523
   1626,   26.3193913,    379.39447
   1627,   26.1612682,   369.396362
   1628,   26.0787735,   359.418274
   1629,   26.0485306,   349.405914
   1630,   26.6170673,   300.040802
   1631,   26.0618954,   339.506104
   1632,   26.1208401,    329.62088
   1633,   26.2401924,   319.771759
   1634,   26.3772202,   309.855591
   1635,    104.56398,   423.453278
   1636,   114.208725,   423.533356
   1637,   27.2824669,   259.804535
   1638,   26.6731281,   229.446411
   1639,   27.1127911,   239.417923
   1640,    26.011734,   219.680389
   1641,   27.2649746,   249.532455
   1642,   25.4259892,   210.763138
   1643,   27.2259922,   201.602737
   1644,   30.5988388,   191.635574
   1645,   52.0291481,   426.599762
   1646,   83.5259857,   431.918091
   1647,   142.559891,   432.523438
   1648,   191.726181,   432.381622
   1649,   211.171173,   431.387848
   1650,   200.543701,   112.199623
   1651,   230.370682,   112.521866
   1652,   220.487671,    112.33522
   1653,   181.113098,   121.634888
   1654,    171.19133,   121.598198
   1655,   161.568085,   121.829384
   1656,   152.405807,   122.594254
   1657,   143.880661,   124.029442
   1658,   210.522797,   112.253784
   1659,   133.488358,   116.232269
   1660,   230.554474,   420.744141
   1661,   230.512161,   430.716125
   1662,   35.8812447,   179.226471
   1663,   48.1639862,   172.430283
   1664,   58.7709961,   166.961426
   1665,   68.8575668,   161.869232
   1666,   78.5960999,   156.819458
   1667,   87.9844742,   151.671783
   1668,   96.9011841,    146.42572
   1669,   121.108528,   132.230484
   1670,   105.327522,   141.250626
   1671,   220.459946,   410.638702
   1672,   223.018753,   182.067322
   1673,   222.593369,    172.03421
   1674,   222.690186,   379.523865
   1675,   221.497971,   389.670258
   1676,   215.143021,   222.568726
   1677,   215.108093,   271.873047
   1678,   215.110565,   262.121307
   1679,   215.080276,   232.438675
   1680,   215.146851,   281.786041
   1681,   215.214508,   291.640289
   1682,    215.05307,   242.379349
   1683,   215.264771,   330.700897
   1684,   215.318298,   320.964996
   1685,   215.291412,    301.46109
   1686,   215.355743,   311.263031
   1687,   215.267365,    340.38266
   1688,   215.284027,    349.88327
   1689,   220.190674,   400.035858
   1690,   222.100235,   161.961411
   1691,   215.083481,   252.323364
   1692,   221.698502,   151.873245
   1693,   221.381485,   141.914581
   1694,   221.108047,   131.984421
   1695,   215.154633,   212.805099
   1696,   215.044464,   203.012497
   1697,     223.3358,   369.558441
   1698,   223.305008,   192.218552
   1699,   34.3848076,   204.626999
   1700,   211.117065,   421.638885
   1701,    35.507679,   269.405396
   1702,   35.6750946,    259.16687
   1703,   38.6952515,   196.325668
   1704,   94.9649887,   423.390564
   1705,   123.961708,   423.584229
   1706,   191.926208,   423.800385
   1707,   34.4582176,   217.801819
   1708,   34.7407646,   228.394577
   1709,   67.4188538,   420.706787
   1710,   31.1170044,    211.08287
   1711,   76.2669067,   422.352631
   1712,   34.6623001,   309.117615
   1713,   34.9030075,   299.251984
   1714,   28.5074577,   419.844147
   1715,   153.518066,   423.859467
   1716,    172.76535,   424.370636
   1717,   163.211411,   424.150085
   1718,   34.3146744,   358.532593
   1719,   35.0929337,   289.318726
   1720,   35.2373428,   279.365631
   1721,   35.3031387,   398.491699
   1722,   36.2907486,   408.496246
   1723,   34.9181747,   388.475677
   1724,   34.4687576,   368.472931
   1725,   34.6860466,   378.441315
   1726,   34.3930244,   318.893494
   1727,   34.2416115,   328.691559
   1728,   47.0515747,   416.136749
   1729,    34.197422,   338.516754
   1730,   34.2297478,   348.418854
   1731,   105.778885,   414.808655
   1732,   35.8200951,    238.36496
   1733,   59.8624687,   417.207825
   1734,   35.8518105,   248.766022
   1735,   143.625275,   423.715454
   1736,   133.765732,   423.645111
   1737,   85.5161743,   423.102448
   1738,   182.336975,   424.484589
   1739,   201.366577,   422.672607
   1740,    191.03038,   121.807571
   1741,     145.5625,   133.340347
   1742,    162.26181,   131.145248
   1743,   171.557007,   131.056519
   1744,   220.827194,     122.0886
   1745,   153.598526,   131.953049
   1746,   210.948776,   121.979683
   1747,   200.970398,   121.929863
   1748,   135.975937,   126.177826
   1749,   230.330322,   440.464813
   1750,   125.849442,   118.989326
   1751,   128.481308,    128.93898
   1752,   44.8164558,   187.836914
   1753,   220.732773,   421.020935
   1754,   53.3776054,   181.074692
   1755,   91.2463608,   160.175964
   1756,   100.050491,   155.048386
   1757,   62.8636627,   175.389603
   1758,   81.9696579,   165.147003
   1759,   108.263924,   150.044708
   1760,   116.087448,   145.375977
   1761,   51.7336731,   195.561218
   1762,   138.018585,   135.453262
   1763,    210.14856,   411.209656
   1764,   214.342133,   182.993088
   1765,   215.022903,   368.899353
   1766,   213.578751,   172.941071
   1767,   211.892471,   152.272339
   1768,   211.410751,   142.121536
   1769,   212.634644,   162.671478
   1770,   206.626678,   272.854401
   1771,   206.572647,   263.140106
   1772,   207.966064,    399.05719
   1773,   212.161224,   387.927979
   1774,   206.930252,    302.14386
   1775,   206.736649,   282.687592
   1776,    206.58168,   233.531708
   1777,   206.856491,   292.483521
   1778,   207.023987,   311.752655
   1779,   214.224899,   378.431854
   1780,   206.550339,    243.48114
   1781,   206.556351,   253.390549
   1782,   206.838562,    330.95755
   1783,   207.021484,   321.320648
   1784,   206.675247,   340.515259
   1785,    206.69751,   349.838867
   1786,   206.636887,   223.771378
   1787,   206.639297,   214.070038
   1788,   215.281342,   359.347382
   1789,    214.77417,    193.13797
   1790,   40.1520576,   209.656998
   1791,   44.0231056,   248.266754
   1792,   43.5780106,   258.552429
   1793,   96.5018616,    414.79538
   1794,   43.3275108,   268.589081
   1795,   115.187103,   414.863647
   1796,   49.4522285,     222.1026
   1797,    45.367794,    215.09697
   1798,   42.7739105,   298.141571
   1799,   43.0178909,   288.216919
   1800,   71.3734589,   412.280792
   1801,   182.381073,   416.873505
   1802,   42.4794312,   307.934967
   1803,   45.2002411,   236.651993
   1804,   65.1796417,   409.642609
   1805,    42.287941,    317.64151
   1806,   44.4236374,   406.478149
   1807,    154.40062,   415.092529
   1808,   164.184525,   415.525696
   1809,   43.2128296,   278.420013
   1810,   43.5263557,   396.855804
   1811,    43.325901,   387.107635
   1812,   42.4925308,   357.151611
   1813,   134.594757,    414.88324
   1814,   42.3483734,   347.052582
   1815,   42.2112083,    327.34671
   1816,   42.2536087,   337.081055
   1817,   43.0812187,   377.118622
   1818,   42.7824364,   367.060913
   1819,   51.7104988,    403.89856
   1820,   144.413086,    414.95816
   1821,   78.9474487,   413.705536
   1822,   173.326218,    416.01178
   1823,   87.4560165,   414.480621
   1824,   124.784431,   414.904297
   1825,   191.067413,    415.59436
   1826,   181.300522,     131.4077
   1827,    154.39595,   140.960907
   1828,   162.499237,   140.402084
   1829,   171.328354,   140.570923
   1830,   201.158936,   131.947067
   1831,   191.138611,   131.879089
   1832,   130.763611,   138.153397
   1833,   139.700623,   144.134949
   1834,   206.301086,   194.496811
   1835,   206.997864,   368.202179
   1836,   201.527435,   153.374649
   1837,   203.178192,   164.147339
   1838,   205.725143,   184.637665
   1839,   198.002365,   264.348663
   1840,   198.130508,   274.036469
   1841,   198.313171,   283.738556
   1842,   198.890854,   390.746246
   1843,   198.465439,   293.419708
   1844,   197.970535,   254.609131
   1845,   206.370544,   376.865387
   1846,   204.674149,   174.680664
   1847,   198.540176,   302.976196
   1848,   198.692825,    312.32486
   1849,   198.017654,   234.959503
   1850,   197.989304,   244.812302
   1851,   198.819046,   321.569122
   1852,   198.419815,   331.025452
   1853,   204.067474,   383.871735
   1854,   198.060074,   225.263214
   1855,   197.773239,   340.532135
   1856,   198.074799,   215.621338
   1857,   206.991837,   359.007874
   1858,   206.513077,   204.402557
   1859,   51.1668968,   258.111603
   1860,   45.5099907,   202.487457
   1861,   51.9430237,   248.445923
   1862,   51.1703148,   209.229706
   1863,   50.8521919,   267.641388
   1864,   51.3290215,   277.287689
   1865,    211.12735,   132.013657
   1866,   51.6569824,   240.533005
   1867,   106.698334,   406.363525
   1868,   55.9208565,   216.568115
   1869,   50.6977005,   287.026398
   1870,   97.8855667,   406.481445
   1871,   53.3149261,   229.775482
   1872,   50.1958389,    296.85025
   1873,   50.0589638,   306.465363
   1874,   50.0801315,   315.988617
   1875,   68.8496475,   403.610779
   1876,   135.061462,   406.315033
   1877,   50.7972145,   355.284546
   1878,   50.1843338,   325.568024
   1879,   50.5711098,   345.223267
   1880,   51.5207558,   395.207092
   1881,    165.08252,   406.899323
   1882,   51.1888885,   365.203827
   1883,    50.373806,   335.256195
   1884,   52.0824356,   385.458618
   1885,    182.14296,   410.705841
   1886,   125.333549,   406.347992
   1887,   144.954453,   406.226318
   1888,   51.7214775,   375.270294
   1889,   74.3654709,   404.174469
   1890,   174.663147,   406.498413
   1891,   81.3521042,   405.137695
   1892,   89.2640762,   406.039948
   1893,   115.820343,   406.361633
   1894,   188.450714,   407.784119
   1895,   180.875504,   141.510422
   1896,   162.100739,   149.498184
   1897,   170.253998,   149.910873
   1898,   201.097687,   142.565536
   1899,   190.833252,   142.728714
   1900,   126.046425,   150.036926
   1901,   197.214523,   404.126251
   1902,   59.1270142,   189.406326
   1903,    200.12088,   413.291412
   1904,   94.7813568,   168.656784
   1905,   85.6654816,   173.580215
   1906,   76.4762421,   178.583664
   1907,   111.388016,   158.670761
   1908,   118.783005,   153.986618
   1909,   57.5320091,   203.256119
   1910,   197.768845,   196.317307
   1911,   197.195389,   186.744705
   1912,   198.797073,   359.049988
   1913,   194.195023,   166.842163
   1914,   189.319382,   265.671631
   1915,   189.517914,   275.308197
   1916,   199.636444,   367.759369
   1917,   189.857697,   284.823608
   1918,    189.24852,   255.937698
   1919,   190.146759,   294.289185
   1920,   189.267654,   246.215607
   1921,   192.033508,   383.589661
   1922,   189.958923,   303.833221
   1923,    196.12851,   177.096268
   1924,   190.139969,    330.54068
   1925,   190.939285,   321.635345
   1926,   190.056778,   313.087067
   1927,   189.306549,   236.508896
   1928,   198.123627,   376.987183
   1929,   189.344803,   226.879608
   1930,    189.36174,   217.292557
   1931,   197.567978,   349.991028
   1932,   197.965225,   206.035568
   1933,   57.6945648,   266.294891
   1934,   60.6864357,   275.824951
   1935,   57.9783821,   258.270874
   1936,   61.2279854,   247.442963
   1937,   67.0471039,    218.53717
   1938,   57.8095665,   286.392609
   1939,   69.1530151,   240.130692
   1940,   64.5680466,   232.019119
   1941,   57.3362541,   295.528473
   1942,   107.134804,   397.987152
   1943,   57.6960793,   304.559174
   1944,   58.0676498,   313.808197
   1945,   60.7473831,   405.453186
   1946,    135.15712,   397.977081
   1947,   58.3858643,    323.29599
   1948,   58.7337379,   333.002441
   1949,   59.8907661,   362.828705
   1950,   59.5575027,   352.930298
   1951,   59.1884155,   342.911102
   1952,    145.06337,    397.61908
   1953,   59.0143166,    394.85556
   1954,   60.5100365,    372.91687
   1955,   167.621414,   397.720551
   1956,   177.757614,   393.908783
   1957,   66.3255997,   397.577759
   1958,   61.9284401,   384.012146
   1959,   98.9606628,   398.801758
   1960,   155.704422,   397.231781
   1961,   83.1907196,   396.682373
   1962,   125.626732,   398.032135
   1963,     90.94384,   398.003143
   1964,   116.161224,   397.888306
   1965,   185.606171,   389.022125
   1966,   146.888641,   142.211868
   1967,   179.232941,   151.515884
   1968,   147.784302,   150.497635
   1969,   168.322556,    158.83606
   1970,   189.846176,   155.467529
   1971,   141.159729,   152.068069
   1972,   191.509705,   396.146271
   1973,   135.007797,   155.233826
   1974,   189.132065,    198.31073
   1975,   68.0051727,    388.94635
   1976,   188.678253,   189.059341
   1977,   180.463318,   267.005127
   1978,   191.018784,   360.479645
   1979,   180.364792,   257.277466
   1980,   193.758499,   366.900574
   1981,   180.616241,   276.657745
   1982,   181.182205,   286.099915
   1983,   186.104782,   171.194122
   1984,   187.822006,    179.98822
   1985,    180.35994,   247.586395
   1986,   190.297272,   371.679657
   1987,   182.282318,   294.862915
   1988,   181.930847,   328.729187
   1989,     181.4496,   304.191223
   1990,   180.427063,   237.960068
   1991,   179.868225,   315.108521
   1992,   185.341614,   377.077423
   1993,   180.505234,   228.390701
   1994,   180.562057,   218.857544
   1995,   188.676636,   339.866486
   1996,    68.735321,   268.098724
   1997,    74.576683,   260.553802
   1998,   74.5251617,   247.173477
   1999,   63.2972908,   287.140869
   2000,   189.298981,   207.777237
   2001,   71.5110245,   226.384598
   2002,   64.8485184,   293.305206
   2003,   65.9512177,   301.685089
   2004,   76.0992126,   234.036621
   2005,   66.5643616,   310.945831
   2006,   67.0246277,   320.508698
   2007,   105.965759,   388.754211
   2008,   116.439217,   389.541931
   2009,   67.5396576,    330.25705
   2010,   134.797272,   389.855591
   2011,   144.366013,   388.958069
   2012,   69.6261063,   359.753571
   2013,   68.2498856,   340.184631
   2014,     69.13591,    350.09082
   2015,   69.7444229,   369.555145
   2016,   174.678787,   387.376373
   2017,   71.2510681,   378.396423
   2018,   154.706024,   387.687439
   2019,   165.955063,   385.335297
   2020,   93.2806625,   390.435059
   2021,   99.2548599,   392.846039
   2022,    125.84655,   390.030914
   2023,   69.4484253,   205.406296
   2024,   175.701614,   160.284775
   2025,   161.038345,    158.43541
   2026,   182.356628,   163.908508
   2027,   64.5598068,   197.538101
   2028,   154.122437,   158.421295
   2029,   147.775345,   158.439529
   2030,   152.778091,   166.647583
   2031,   76.4017563,   385.998352
   2032,    76.972641,   200.238174
   2033,   180.184036,   191.155319
   2034,   171.341431,   258.442017
   2035,   180.439407,   200.159576
   2036,   171.422729,   268.099182
   2037,   179.369705,   358.545441
   2038,   177.083344,   345.920837
   2039,   171.327713,   248.714066
   2040,   171.425415,   277.868866
   2041,   179.739548,   182.494858
   2042,    179.22789,   370.876404
   2043,   171.324036,   288.884644
   2044,   178.927704,    174.64621
   2045,    173.61348,   302.520142
   2046,   171.447311,   239.094955
   2047,    174.20578,    324.93219
   2048,   170.730377,   311.581818
   2049,   171.633026,     229.5681
   2050,   171.801056,   220.085846
   2051,   179.681137,   337.270782
   2052,   80.6322708,   266.420471
   2053,   79.9900131,   253.697144
   2054,    74.938324,   274.587463
   2055,   80.8740387,   241.181656
   2056,   72.5666046,   288.744904
   2057,   180.564651,   209.402161
   2058,   74.5363235,   297.922882
   2059,   75.3970718,   307.681427
   2060,   87.4399261,   235.997726
   2061,   83.0160446,   228.673157
   2062,   75.9945297,   317.421021
   2063,   76.6939163,   327.168396
   2064,   142.700348,   380.127106
   2065,   81.6633377,   357.087219
   2066,   78.6033707,   367.874359
   2067,   77.7569504,    336.96228
   2068,   108.872002,   380.757019
   2069,   79.3508301,   346.816986
   2070,   97.1729355,   384.019226
   2071,   82.3611298,   377.955231
   2072,   152.160767,   378.360321
   2073,   133.768509,   381.920837
   2074,   89.2943115,   380.921783
   2075,   160.819778,   375.708801
   2076,   117.506607,   381.346222
   2077,   74.0449982,   213.269424
   2078,   172.692703,   167.998611
   2079,    166.29393,   167.402237
   2080,   177.759125,   168.956619
   2081,    138.42749,   164.069077
   2082,   173.253967,   377.093414
   2083,   81.4776306,   208.232452
   2084,   162.176208,   268.842255
   2085,   162.160263,   259.193481
   2086,   171.763443,   192.674576
   2087,   162.172333,   278.159912
   2088,   171.836365,   201.571503
   2089,   172.833176,   353.126465
   2090,   171.730896,    184.06398
   2091,   173.541718,   364.739929
   2092,   168.921753,   342.623566
   2093,   162.064362,   287.075836
   2094,   162.184677,   249.447556
   2095,   166.559937,   298.839905
   2096,   163.046402,   307.610687
   2097,   166.098358,   321.005219
   2098,   162.398544,   239.776825
   2099,   162.808228,   230.246048
   2100,   90.4271317,   262.896454
   2101,   87.2034988,   270.736389
   2102,    170.85437,    334.03125
   2103,   90.1873169,    253.57106
   2104,   82.3980942,   282.115601
   2105,   157.939072,   175.876282
   2106,   83.7717667,   294.118225
   2107,   91.7125854,   242.955521
   2108,   84.4483109,   304.516541
   2109,   94.3066254,   231.678497
   2110,   85.0944366,   314.377502
   2111,    171.88295,   210.685944
   2112,   85.9270935,   324.011475
   2113,   87.1637268,      333.388
   2114,   90.6181259,   362.226257
   2115,   89.1252899,   342.199799
   2116,   140.411819,   371.385895
   2117,   100.862366,   377.515503
   2118,   157.711014,   367.220581
   2119,   163.984009,   365.686005
   2120,   117.917366,   372.413116
   2121,   110.404663,   374.989349
   2122,   72.3518982,   192.126144
   2123,   78.5632553,   221.083206
   2124,   164.891708,   176.049332
   2125,    146.03656,   165.881317
   2126,   168.017471,   370.906342
   2127,   121.718971,   162.062775
   2128,   85.8838425,   216.162521
   2129,   164.084122,   184.698792
   2130,   85.0719833,   195.324646
   2131,   152.955444,    259.63205
   2132,   152.998199,   269.099915
   2133,   152.903458,   249.827225
   2134,   163.438293,   202.412689
   2135,   154.884125,   286.199066
   2136,   163.651367,   193.431122
   2137,   166.485336,   358.499908
   2138,   166.031067,   350.132904
   2139,    161.95015,   340.627563
   2140,   163.400925,   211.499008
   2141,   159.180786,   295.630005
   2142,   153.209381,   239.967712
   2143,   155.776047,   303.582733
   2144,   95.1395645,   271.914398
   2145,    171.80159,   175.866241
   2146,   158.704727,   316.058075
   2147,   154.007645,   230.317642
   2148,   94.1223679,     258.4823
   2149,   93.2635956,   281.841034
   2150,   160.253967,   331.515625
   2151,   95.5613861,   249.297058
   2152,   93.0944138,   291.989319
   2153,   138.523163,   173.891922
   2154,   93.5622864,   301.969421
   2155,   98.0896149,   239.158615
   2156,    94.270668,   311.610443
   2157,   95.2272034,   320.974884
   2158,   163.244522,   220.820877
   2159,   93.4446793,    373.72644
   2160,   96.5091095,   329.935059
   2161,   97.6067276,   355.166077
   2162,     98.08284,   337.976044
   2163,   100.856987,   343.719574
   2164,   139.168808,   362.599609
   2165,   156.886627,   358.350128
   2166,   128.834091,   363.242676
   2167,   98.1013718,   366.838043
   2168,   122.145386,   355.983063
   2169,   110.292908,   354.900574
   2170,   90.2000961,   223.988983
   2171,   67.5697479,   183.808762
   2172,    124.83976,   168.021515
   2173,   97.6062927,   219.792191
   2174,   80.8199005,   187.007263
   2175,   124.188713,   186.908371
   2176,   89.3423767,   203.482529
   2177,   148.847427,   184.046432
   2178,    144.60965,   269.075958
   2179,   143.801987,    260.13089
   2180,   151.711288,   279.276489
   2181,   143.404892,   250.088562
   2182,   103.694626,   271.101196
   2183,   96.1537933,   263.549622
   2184,   142.906021,    287.06485
   2185,   155.526184,   193.644455
   2186,    155.19873,   202.715393
   2187,   156.189255,   347.611847
   2188,   150.984238,   337.972534
   2189,   145.479752,   307.071106
   2190,   155.205521,   211.840897
   2191,   143.251617,   312.784821
   2192,   143.784546,    239.68103
   2193,    99.051506,   255.114441
   2194,   102.735634,    280.94278
   2195,   152.819717,   323.985352
   2196,   102.581978,   290.423889
   2197,    101.14518,   246.242676
   2198,   102.939163,    299.82843
   2199,   103.592819,   309.146088
   2200,   104.509964,   318.323578
   2201,   155.010193,   221.102219
   2202,   105.718575,   327.337708
   2203,   105.240021,   349.123413
   2204,   107.212418,   336.685638
   2205,    146.45285,   351.311401
   2206,   138.188843,   354.459259
   2207,   128.005981,   351.124908
   2208,   117.044182,   349.776794
   2209,   101.526978,     227.9944
   2210,   156.545761,   184.654938
   2211,   147.057556,    193.31221
   2212,   109.008438,   224.670334
   2213,   93.6576462,   190.576294
   2214,   136.301941,   271.181305
   2215,   139.188416,   279.398041
   2216,   104.494499,   260.121277
   2217,   134.424652,   261.592438
   2218,   93.5680923,   211.635849
   2219,   103.179863,   252.868744
   2220,   111.629921,   279.980286
   2221,   139.960052,   296.727081
   2222,   146.854401,   202.870453
   2223,   142.878082,   342.933502
   2224,   133.753876,   250.716385
   2225,   145.431946,   330.068268
   2226,   147.324768,   212.100357
   2227,   138.237152,   305.255859
   2228,   147.661438,   220.845535
   2229,   112.071625,   288.851471
   2230,   107.444481,   244.313828
   2231,   112.454605,    297.94577
   2232,    146.95488,   317.723602
   2233,   112.901848,    307.07959
   2234,   113.599037,   316.074799
   2235,   114.713058,   324.669891
   2236,   145.103973,   229.359604
   2237,   116.599052,   332.409576
   2238,   131.209763,   340.575531
   2239,    123.92038,   345.094116
   2240,   104.962952,   236.179626
   2241,   121.208557,   176.001587
   2242,   132.917526,   184.035782
   2243,   144.657364,    174.17186
   2244,   89.6680527,    182.07225
   2245,   97.6461792,   198.947449
   2246,   116.658043,    221.46875
   2247,   128.564819,   274.600372
   2248,   124.321991,   264.175812
   2249,    118.67775,   271.260986
   2250,   132.320496,   284.754944
   2251,   124.407951,   252.199158
   2252,   131.314926,   295.554688
   2253,   120.506721,   278.216003
   2254,   115.555016,   252.689682
   2255,   130.558441,   304.850342
   2256,   139.127731,   322.461365
   2257,   139.741028,   213.071655
   2258,    141.39151,    221.54071
   2259,   137.765228,   230.467667
   2260,   105.333031,    215.95079
   2261,   121.834015,   286.990997
   2262,   122.023499,   305.559509
   2263,   137.602951,    313.45517
   2264,   122.388489,   314.401978
   2265,   123.267487,   322.553467
   2266,   112.317162,   343.533966
   2267,   133.141769,   238.251099
   2268,   124.592087,   329.461243
   2269,   127.093063,   334.896759
   2270,   112.391609,   233.628052
   2271,    127.34774,    196.19693
   2272,   115.196793,   190.502823
   2273,   115.081673,   167.207855
   2274,   138.221268,   335.575439
   2275,   123.256783,   241.132553
   2276,   132.593491,      329.112
   2277,    102.55262,   185.885437
   2278,   120.128593,    231.02092
   2279,   101.576118,   207.398392
   2280,    131.00209,   321.634338
   2281,   131.995438,   215.259338
   2282,   127.657356,   227.856567
   2283,    134.58316,   223.950882
   2284,   107.333702,    172.31488
   2285,    130.47406,   313.639038
   2286,    113.27359,   212.338287
   2287,   138.440796,   203.529663
   2288,   111.641296,   181.108521
   2289,   135.145035,   347.083344
   2290,   118.412521,   199.690506
   2291,   109.868454,   203.412338
   2292,   129.806702,   205.814941
   2293,   103.433807,   163.566422
   2294,   124.311302,   218.275391
   2295,   121.415077,   208.912399
   2296,   114.845917,   242.895828
   2297,   106.319374,    194.58017
   2298,   240.181473,   440.294525
   2299,    10.713995,   159.315887
   2300,   102.292145,   132.319427
   2301,   113.351585,   136.380951
   2302,   54.7963486,   411.220795
   2303,   123.542915,   141.408844
   2304,   57.2043457,   401.762451
   2305,   72.4902878,    170.16658
   2306,   132.829056,   146.837662
   2307,   155.078079,   406.227539
   2308,   183.035324,   400.859344
   2309,   154.668137,   149.787521
   2310,   75.3971558,    396.02713
   2311,    128.58699,   158.330521
   2312,   98.6306839,   177.184402
   2313,   142.736862,   158.102707
   2314,   130.865509,   166.705902
   2315,   85.4929962,    388.43808
   2316,    77.624794,   374.918823
   2317,   159.536636,   167.045624
   2318,   179.642578,   382.458954
   2319,   40.5504265,   219.783035
   2320,   42.2972374,   226.846237
   2321,   62.5421715,   210.965607
   2322,   86.3481445,   370.184875
   2323,   151.051941,   175.265533
   2324,   131.106659,   175.359558
   2325,   184.792328,   365.161743
   2326,   92.4206314,   349.394897
   2327,   103.878204,   360.568481
   2328,   141.194946,     182.1465
   2329,   104.993713,   371.184082
   2330,   60.2574005,   224.189636
   2331,    186.79422,    350.83252
   2332,   149.719803,   369.277924
   2333,   110.434738,   365.908173
   2334,   126.332092,   382.207672
   2335,   129.579926,   373.919922
   2336,   137.405807,   192.368332
   2337,   57.6313286,   237.272705
   2338,   148.212601,   360.287415
   2339,   115.867638,   360.606201
   2340,   120.756325,   365.609192
   2341,   119.855827,   338.932892
   2342,   131.663742,    356.17041
   2343,   68.5253296,   254.048523
   2344,   63.4126282,   261.647339
   2345,     184.3871,   321.834717
   2346,   85.6369781,   247.817917
   2347,   85.2733536,   259.134094
   2348,   122.001068,   296.393341
   2349,   68.0664978,   281.515259
   2350,   175.967422,   295.326752
   2351,   151.988464,   311.083282
   2352,   148.102509,   299.771912
   2353,   151.167618,   292.196808
   2354,   111.897736,   270.802826
   2355,   114.011276,   261.815216
   2356,   145.216904,   275.960327
   2357,   108.135353,   252.441437
*Element, type=CPE3
 1, 1170,  789,  715
 2,  874,  819,  816
 3,  971,  921,  969
 4, 1002,  952,  954
 5, 1166, 1067, 1026
 6, 1110, 1076, 1108
 7, 1145, 1096, 1126
 8, 1160,  751,  744
 9,  701,  700,  773
993, 1203,  170,  171
994, 1394, 1391, 1356
995, 1382, 1366, 1368
996, 1385, 1369, 1374
997, 1347, 1407, 1370
1234, 1928, 1845, 1853
1235, 1955, 1890, 1881
1236, 2148, 2183, 2100
1237, 2334, 2335, 2073
1238, 2138, 2089, 2137
1239, 2276, 2269, 2268
1240, 2204, 2163, 2162
1241, 2280, 2256, 2276
1242, 2236, 2258, 2228
1243, 2184, 2250, 2215
1244, 2328, 2153, 2243
1245, 2328, 2336, 2242
1246, 2344, 1933, 1935
1247, 2216, 2193, 2219
1248, 2219, 2357, 2216
*Element, type=CPE4
 10,  277,  280,  354,  447
 11,  285,  103,  104,  286
 12,  278,   95,   96,  349
 13,   38,   39,  381,  422
 14,  559,  460,  464,  557
 15,  424,    2,   24,  435
 16,   23,    2,  424,  334
 17,   22,   23,  334,  330
 18,   21,   22,  330,  335
 19, 1151,  532, 1153,  534
 20,  106,  287,  275,  105
 21,  282,  100,  101,  283
 22,   93,  279,  355,   92
 23,   87,  382,  402,   86
 24,  326,   79,   80,  380
 25,   88,  284,  382,   87
 26,  314,  313,  383,  412
 27,    3,   36,  617,   35
 28,  480,  384,  422,  489
 29,  434,  617,  384,  480
 30,  526,  755,  616,  443
 31,  385,  381,   39,   40
 32,   41,   42,  305,  407
 33,   43,   44,  303,  306
 34,   46,   47,  329,  304
 35,  693,  608,  615, 1152
 36,   33,  345,  343,   32
 37,  343,  443,  437,  344
 38,  306,  305,   42,   43
 39,  344,   31,   32,  343
 40,  450,  449,  369,  373
 41,   49,   50,  308,  327
 42,  302,  309,   51,   52
 43,   79,  326,  387,   78
 44,  323,  324,   54,   55
 45,   82,  388,  398,   81
 46,  471,  447,  540,  538
 47,  379,   77,   78,  387
 48,   76,  310,  311,   75
 49,   75,  311,  312,   74
 50,   74,  312,  313,   73
 51,   73,  313,  314,   72
 52,   72,  314,  315,   71
 53,  316,   70,   71,  315
 54,  315,  314,  412,  389
 55,   68,  321,  318,   67
 56,   67,  318,  319,   66
 57,  319,  318,  391,  392
 58,   66,  319,  320,   65
 59,   64,    4,   65,  320
 60,  321,  317,  417,  393
 61,  317,   69,   70,  316
 62,  494,  493,  390,  389
 63,  311,  310,  396,  395
 64,  310,  379,  475,  396
 65,  418,  323,  322,  478
 66,   56,   57,  378,  322
 67,  322,  323,   55,   56
 68,  283,  274,  362,  356
 69,   98,  280,  277,   97
 70,  349,   96,   97,  277
 71,  350,   94,   95,  278
 72,  481,  482,  585,  605
 73,  276,   99,  100,  282
 74,   91,  351,  281,   90
 75,  102,  274,  283,  101
 76,   90,  281,  284,   89
 77,  281,  357,  382,  284
 78,   88,    5,   89,  284
 79,  105,  275,  286,  104
 80,  409,  403,  502,  507
 81,  309,  308,   50,   51
 82,  107,  272,  287,  106
 83,   48,   49,  327,  328
 84,  288,  108,  109,  289
 85,  289,  109,  110,  290
 86,   45,   46,  304,  307
 87,  290,  110,  111,  291
 88,  112,  292,  291,  111
 89,  291,  292,  377,  359
 90,  307,  386,  399,  303
 91,  113,  273,  292,  112
 92,  347,  436,  439,  341
 93,  293,  114,  115,  294
 94,  367,  360,  465,  458
 95,  294,  115,  116,  295
 96,  360,  366,  466,  465
 97,  295,  116,  117,  296
 98,  521,  520,  431,  430
 99,  114,  293,  273,  113
100,  335,  336,   20,   21
101,   19,   20,  336,  331
102,  337,  338,   17,   18
103,  118,  297,  296,  117
104,  300,  301,  444,  361
105,  119,  298,  297,  118
106,  428,  444,  527,  339
107,  121,  300,  299,  120
108,  122,  301,  300,  121
109, 1150,  123,    1,   12
110,  272,  107,  108,  288
111,   28,  346,  347,   27
112,  497,  496,  383,  394
113,  274,  102,  103,  285
114,  353,  363,  272,  288
115,   99,  276,  280,   98
116,  401,   84,   85,  479
117,  351,  355,  445,  473
118,  279,   93,   94,  350
119,  452,  454,  362,  371
120,  402,  382,  357,  568
121,  351,   91,   92,  355
122,  419,  324,  323,  418
123,  403,  302,  325,  397
124,  406,  327,  308,  404
125,  419,  418,  500,  499
126,  421,  329,  328,  420
127,   29,  340,  346,   28
128,  459,  461,  352,  365
129,  360,  367,  294,  295
130,  296,  297,  374,  366
131,  368,  298,  299,  375
132,  298,  119,  120,  299
133,  331,  337,   18,   19
134,   15,   16,  332,  333
135,  301,  122,  123, 1150
136,  467,  374,  368,  468
137,   12,   13,  527, 1150
138,  333,  339,   14,   15
139,   52,   53,  325,  302
140,  348,   30,   31,  344
141,   44,   45,  307,  303
142,  702,  637,  629,  699
143,  345,   33,   34,  434
144,  359,  376,  290,  291
145,  285,  286,  358,  371
146,  310,   76,   77,  379
147,  282,  283,  356,  372
148,   57,   58,  410,  378
149,  492,  491,  393,  417
150,  415,  414,   61,   62
151,  491,  490,  391,  393
152,   69,  317,  321,   68
153,  415,  416,  392,  579
154,   64,  320,  416,   63
155,  317,  316,  390,  417
156,  478,  322,  378,  513
157,  496,  495,  412,  383
158,  324,  325,   53,   54
159,  394,  383,  313,  312
160,  380,   80,   81,  398
161,  447,  471,  349,  277
162,  287,  272,  363,  373
163,  302,  403,  409,  309
164,  404,  409,  507,  510
165,   47,   48,  328,  329
166,  341,   26,   27,  347
167,  539,  611,  626,  537
168,  333,  332,  432,  426
169,   16,   17,  338,  332
170,  426,  428,  339,  333
171,   25,  342,  435,   24
172,   26,  341,  342,   25
173,  433,  330,  334,  525
174,  425,  336,  335,  429
175,  336,  425,  430,  331
176,  467,  466,  366,  374
177,  541,  467,  468,  537
178,   13,   14,  339,  527
179,  376,  370,  289,  290
180,  340,   29,   30,  348
181,  528,  435,  342,  440
182,  755,  526,  480,  489
183,  423,  305,  306,  408
184,   35,  617,  434,   34
185,  557,  464,  463,  558
186,  442,  348,  344,  437
187,  352,  377,  292,  273
188,  303,  399,  408,  306
189,  278,  349,  471,  446
190,   83,  400,  388,   82
191,  273,  293,  365,  352
192,  288,  289,  370,  353
193,  280,  276,  364,  354
194,  567,  625,  586,  483
195,  482,  481,  388,  400
196,  498,  502,  403,  397
197,  565,  568,  357,  473
198,  281,  351,  473,  357
199,  286,  275,  369,  358
200,  404,  308,  309,  409
201,  295,  296,  366,  360
202,  361,  375,  299,  300
203,  371,  362,  274,  285
204,  737,  668,  669,  735
205,  372,  364,  276,  282
206,  367,  365,  293,  294
207,  611,  539,  517,  518
208,  609,  610,  521,  523
209,  297,  298,  368,  374
210,  368,  375,  469,  468
211,  373,  369,  275,  287
212,  438,  340,  348,  442
213,  418,  478,  574,  500
214,  449,  448,  358,  369
215,  571,  517,  539,  469
216,  377,  352,  461,  462
217,  458,  459,  365,  367
218,   58,   59,  411,  410
219,  389,  390,  316,  315
220,  400,  401,  483,  482
221,  381,  488,  489,  422
222,  312,  311,  395,  394
223,   36,   37,  384,  617
224,  422,  384,   37,   38
225,   40,   41,  407,  385
226,  386,  307,  304,  405
227,  405,  304,  329,  421
228,  628,  540,  563,  653
229,  400,   83,   84,  401
230,  538,  564,  446,  471
231,  393,  391,  318,  321
232,  413,  411,   59,   60
233,  320,  319,  392,  416
234,  581,  675,  673,  582
235,  410,  484,  513,  378
236,  510,  509,  406,  404
237,  379,  387,  515,  475
238,  372,  356,  453,  455
239,  476,  477,  326,  380
240,  364,  372,  455,  456
241,  397,  325,  324,  419
242,  398,  388,  481,  514
243,  479,   85,   86,  402
244,  625,  565,  536,  630
245,  536,  565,  473,  445
246,  448,  452,  371,  358
247,  710,  780,  782,  709
248,  327,  406,  420,  328
249,  373,  363,  451,  450
250,  516,  474,  385,  407
251,  405,  421,  505,  508
252,  504,  511,  399,  386
253,  397,  419,  499,  498
254,   60,   61,  414,  413
255,  486,  413,  414,  487
256,  495,  494,  389,  412
257,  411,  485,  484,  410
258,  415,   62,   63,  416
259,  487,  414,  415,  579
260,  490,  579,  392,  391
261,  582,  673,  672,  600
262,  363,  353,  457,  451
263,  474,  488,  381,  385
264,  443,  343,  345,  526
265,  305,  423,  516,  407
266,  429,  335,  330,  433
267,  524,  522,  429,  433
268,  432,  332,  338,  427
269,  427,  338,  337,  431
270,  431,  337,  331,  430
271,  444,  428,  571,  361
272,  614,  609,  523,  522
273,  525,  334,  424,  694
274,  436,  347,  346,  441
275,  441,  346,  340,  438
276,  408,  399,  511,  512
277,  436,  441,  533,  531
278,  341,  439,  440,  342
279,  435,  528,  694,  424
280,  532,  624,  768,  620
281,  457,  544,  543,  451
282,  434,  480,  526,  345
283,  527,  444,  301, 1150
284,  355,  279,  470,  445
285,  446,  472,  350,  278
286,  501,  497,  394,  395
287,  353,  370,  460,  457
288,  573,  572,  511,  504
289,  370,  376,  464,  460
290,  421,  420,  506,  505
291,  781,  705,  716,  786
292,  452,  547,  548,  454
293,  454,  453,  356,  362
294,  641,  709,  713,  643
295,  553,  448,  449,  555
296,  806,  737,  735,  805
297,  354,  364,  456,  563
298,  514,  481,  605,  575
299,  462,  463,  359,  377
300,  442,  534,  535,  438
301,  690,  758,  759,  691
302,  650,  560,  562,  651
303,  459,  561,  562,  461
304,  530,  439,  436,  531
305,  463,  464,  376,  359
306,  622,  535,  534, 1153
307,  520,  519,  427,  431
308,  430,  425,  523,  521
309,  519,  518,  432,  427
310,  518,  517,  426,  432
311,  469,  375,  361,  571
312,  539,  537,  468,  469
313,  428,  426,  517,  571
314,  472,  470,  279,  350
315,  542,  633,  630,  536
316,  423,  408,  512,  607
317,  380,  398,  514,  476
318,  503,  501,  395,  396
319,  515,  477,  578,  606
320,  387,  326,  477,  515
321,  492,  417,  390,  493
322,  585,  482,  483,  586
323,  479,  567,  483,  401
324,  485,  411,  413,  486
325,  492,  594,  595,  491
326,  491,  595,  596,  490
327,  579,  490,  596,  487
328,  566,  569,  474,  516
329,  569,  592,  488,  474
330,  616,  755,  592,  695
331,  594,  492,  493,  599
332,  582,  485,  486,  581
333,  597,  495,  496,  598
334,  583,  577,  498,  499
335,  577,  576,  502,  498
336,  396,  475,  570,  503
337,  499,  500,  584,  583
338,  497,  602,  598,  496
339,  478,  513,  604,  574
340,  603,  501,  503,  657
341,  475,  515,  606,  570
342,  454,  548,  556,  453
343,  451,  543,  554,  450
344,  580,  578,  477,  476
345,  551,  455,  453,  556
346,  386,  405,  508,  504
347,  420,  406,  509,  506
348,  637,  554,  543,  629
349,  576,  591,  507,  502
350,  589,  588,  509,  510
351,  448,  553,  547,  452
352,  616,  624,  529,  443
353,  607,  566,  516,  423
354,  610,  613,  520,  521
355,  425,  429,  522,  523
356,  886,  830,  881,  879
357,  549,  634,  631,  545
358,  549,  465,  466,  546
359,  528,  761, 1152,  694
360,  433,  525,  615,  524
361,  440,  439,  530,  618
362,  528,  440,  618,  761
363,  443,  529, 1151,  437
364,  663,  659,  569,  566
365,  458,  545,  561,  459
366,  441,  438,  535,  533
367,  544,  632,  629,  543
368,  624,  532, 1151,  529
369, 1151,  534,  442,  437
370,  587,  590,  505,  506
371,  793,  852,  853,  795
372,  512,  511,  572,  687
373,  573,  655,  656,  572
374,  470,  542,  536,  445
375,  470,  472,  552,  542
376,  685,  605,  585,  681
377,  563,  540,  447,  354
378, 1154,  614,  522,  524
379,  467,  541,  546,  466
380,  544,  457,  460,  559
381,  558,  463,  462,  560
382,  943,  887,  897,  951
383,  545,  458,  465,  549
384,  634,  549,  546,  635
385,  613,  691,  692,  612
386,  642,  547,  553,  644
387,  556,  639,  641,  551
388,  455,  551,  550,  456
389,  712,  779,  780,  710
390,  665,  583,  584,  729
391,  564,  552,  472,  446
392,  636,  538,  540,  628
393,  555,  449,  450,  554
394,  588,  587,  506,  509
395,  648,  559,  557,  646
396,  639,  710,  709,  641
397,  623,  535,  622,  766
398,  560,  462,  461,  562
399,  533,  535,  623,  621
400,  638,  561,  545,  631
401,  558,  647,  646,  557
402,  614, 1154, 1156,  688
403,  561,  638,  651,  562
404,  456,  550,  653,  563
405,  628,  697,  704,  636
406,  568,  565,  625,  567
407,  687,  654,  607,  512
408,  568,  567,  479,  402
409,  592,  569,  659,  695
410,  575,  580,  476,  514
411,  504,  508,  593,  573
412,  669,  587,  588,  670
413,  501,  603,  602,  497
414,  500,  574,  660,  584
415,  577,  662,  661,  576
416,  578,  674,  676,  606
417,  667,  575,  605,  685
418, 1164,  747,  812,  734
419,  581,  486,  487,  596
420,  601,  494,  495,  597
421,  484,  485,  582,  600
422,  601,  678,  679,  599
423,  484,  600,  604,  513
424,  574,  604,  684,  660
425,  630,  703,  586,  625
426,  593,  658,  655,  573
427,  554,  637,  645,  555
428,  591,  589,  510,  507
429,  548,  640,  639,  556
430,  668,  590,  587,  669
431,  508,  505,  590,  593
432,  644,  707,  711,  642
433,  489,  488,  592,  755
434,  599,  493,  494,  601
435,  657,  503,  570,  686
436,  683,  598,  602,  680
437,  673,  675,  740,  738
438,  672,  739, 1155,  600
439,  686,  570,  606,  676
440,  584,  660, 1163,  729
441,  833,  836,  777,  774
442,  776,  704,  697,  769
443,  608, 1154,  524,  615
444,  761,  618,  763,  824
445,  627,  541,  537,  626
446,  611,  612,  692,  626
447,  518,  519,  612,  611
448,  613,  612,  519,  520
449,  760,  692,  691,  759
450,  614,  688,  689,  609
451,  688,  821,  756,  689
452,  525,  694, 1152,  615
453,  619,  696,  530,  531
454,  618,  530,  696,  763
455,  531,  533,  621,  619
456,  620,  764, 1153,  532
457,  786,  716,  717,  788
458,  716,  648,  646,  717
459,  654,  663,  566,  607
460,  691,  613,  610,  690
461,  541,  627,  635,  546
462,  551,  641,  643,  550
463,  632,  544,  559,  648
464,  633,  542,  552,  652
465,  652,  552,  564,  649
466,  647,  558,  560,  650
467,  655,  723,  724,  656
468,  538,  636,  649,  564
469,  822,  758,  756,  878
470,  666,  734,  741,  674
471,  575,  667,  666,  580
472,  576,  661,  664,  591
473,  632,  705,  699,  629
474,  640,  548,  547,  642
475,  729,  798, 1172,  665
476,  644,  553,  555,  645
477,  661,  727,  731,  664
478,  666,  667, 1164,  734
479,  653,  721,  697,  628
480,  735,  669,  670,  736
481,  835,  844,  897,  887
482,  717,  646,  647,  718
483,  715,  720,  650,  651
484, 1169,  804,  862,  803
485,  631,  701, 1170,  638
486,  638, 1170,  715,  651
487,  550,  643,  721,  653
488,  658,  593,  590,  668
489,  764,  620,  768, 1064
490,  687,  754,  722,  654
491,  580,  666,  674,  578
492,  658,  726,  723,  655
493,  740,  675,  677,  743
494,  662,  577,  583,  665
495,  598,  683,  682,  597
496,  654,  722,  728,  663
497,  801,  726,  737,  806
498,  591,  664,  671,  589
499,  744, 1155,  739,  742
500,  680,  602,  603,  725
501,  910,  914,  962,  959
502,  670,  588,  589,  671
503,  637,  702,  706,  645
504,  645,  706,  707,  644
505,  723,  794,  792,  724
506,  743,  677,  679,  745
507,  581,  596,  595,  675
508,  595,  594,  677,  675
509,  810,  804,  741,  734
510,  677,  594,  599,  679
511,  676,  733,  749,  686
512,  739,  738,  807,  742
513,  678,  601,  597,  682
514,  738,  740,  861,  807
515,  725,  603,  657,  753
516,  753,  657,  686,  749
517,  681,  585,  586,  703
518, 1155,  684,  604,  600
519,  682,  750,  748,  678
520,  871,  809,  814, 1161
521,  742,  808, 1160,  744
522,  660,  684,  751, 1163
523,  572,  656,  754,  687
524,  757,  608,  693,  880
525,  758,  822,  823,  759
526,  689,  756,  758,  690
527,  689,  690,  610,  609
528,  692,  760,  627,  626
529,  693, 1152,  761,  824
530,  616,  695, 1027,  624
531, 1177, 1061, 1068,  987
532,  763,  825, 1157,  824
533,  630,  633,  708,  703
534,  635,  698,  700,  634
535,  698,  635,  627,  760
536,  705,  632,  648,  716
537,  701,  631,  634,  700
538,  773,  771,  830,  772
539,  882,  934,  825,  762
540,  828,  833,  774,  770
541,  708,  633,  652,  719
542,  719,  652,  649,  714
543,  752,  747,  685,  681
544,  636,  704,  714,  649
545,  718,  647,  650,  720
546,  829,  828,  770,  775
547,  707,  777,  778,  711
548,  711,  778,  779,  712
549,  775,  781,  835,  829
550,  710,  639,  640,  712
551,  712,  640,  642,  711
552,  774,  706,  702,  770
553, 1174,  869,  925,  919
554,  721,  791,  769,  697
555,  719,  787,  785,  708
556,  623, 1159,  767,  621
557,  879,  929, 1025,  886
558,  643,  713,  791,  721
559,  827, 1027,  695,  659
560,  726,  658,  668,  737
561,  820,  877,  852,  793
562,  754,  820,  793,  722
563,  733,  676,  674,  741
564,  732,  671,  664,  731
565,  727,  661,  662,  730
566,  662,  665, 1172,  730
567,  728,  795,  932,  827
568,  809,  743,  745,  814
569,  746,  683,  680,  797
570,  794,  854,  851,  792
571,  706,  774,  777,  707
572,  671,  732,  736,  670
573,  959,  962, 1008, 1009
574,  667,  685,  747, 1164
575, 1174,  862,  804,  810
576,  859,  800,  855,  909
577,  860,  801,  806,  864
578,  738,  739,  672,  673
579,  745,  679,  678,  748
580,  913,  865,  807,  861
581,  684, 1155,  744,  751
582,  750,  682,  683,  746
583,  797,  680,  725,  819
584,  819,  725,  753,  816
585,  784,  714,  704,  776
586,  749,  803,  816,  753
587,  867,  811,  808,  865
588, 1160,  808,  811,  815
589,  729, 1163,  815,  798
590,  815, 1163,  751, 1160
591,  681,  703,  841,  752
592,  714,  784,  787,  719
593,  656,  724,  820,  754
594,  757,  821,  688, 1156
595,  762,  696,  619,  765
596,  698,  760,  931,  771
597,  931,  760,  759,  823
598,  765,  619,  621,  767
599,  789, 1173,  772,  843
600,  696,  762,  825,  763
601,  764, 1158,  622, 1153
602,  877,  928,  905,  852
603,  781,  786,  844,  835
604,  699,  775,  770,  702
605,  722,  793,  795,  728
606,  783,  713,  709,  782
607,  775,  699,  705,  781
608,  701,  773,  772, 1173
609,  700,  698,  771,  773
610,  879,  823,  822,  929
611,  732,  731, 1185,  800
612,  788,  717,  718, 1182
613,  884,  939,  938,  885
614,  818,  812,  747,  752
615, 1101, 1070, 1097, 1146
616,  789,  790,  720,  715
617,  841,  703,  708,  785
618,  796, 1185,  731,  727
619,  838,  780,  779, 1192
620,  730, 1172,  857,  799
621,  836,  839,  778,  777
622,  718,  720,  790, 1182
623,  782,  837,  840,  783
624,  733,  741,  804, 1169
625,  791,  850,  831,  769
626,  810,  872,  869, 1174
627,  841,  982,  818,  752
628,  784,  842,  846,  787
629,  767, 1159,  936,  883
630,  843,  832,  891,  899
631,  849,  790,  789,  843
632,  713,  783,  850,  791
633,  794,  723,  726,  801
634,  802,  736,  732,  800
635,  864,  806,  805,  863
636,  932,  795,  853,  978
637,  727,  730,  799,  796
638, 1180,  866,  916,  967
639,  748,  817,  814,  745
640,  866,  874,  816,  803
641,  915,  860,  864,  917
642,  736,  802,  805,  735
643,  749,  733, 1169,  803
644, 1049,  958, 1009, 1046
645,  769,  831,  834,  776
646,  907,  909,  855,  856
647,  808,  742,  807,  865
648,  817,  748,  750,  813
649,  810,  734,  812,  872
650,  813,  750,  746,  858
651,  845,  982,  841,  785
652,  858,  746,  797,  876
653,  857,  868,  914,  910
654,  865,  913,  871,  918
655,  868,  798,  815,  811
656,  787,  846,  845,  785
657,  876,  797,  819,  874
658,  724,  792,  877,  820
659,  881,  830,  771,  931
660,  878,  756,  821, 1167
661,  881,  931,  823,  879
662,  880,  693,  824, 1157
663,  826,  882,  762,  765
664,  728,  827,  659,  663
665,  765,  767,  883,  826
666,  979, 1027,  827,  932
667,  786,  788,  847,  844
668,  844,  847,  900,  897
669,  772,  830,  832,  843
670,  830,  886,  891,  832
671,  890,  895,  836,  833
672,  831,  888,  889,  834
673,  776,  834,  842,  784
674,  887,  884,  829,  835
675,  892,  837,  838,  894
676,  780,  838,  837,  782
677,  856,  855,  796,  799
678,  896, 1192,  839,  948
679,  885,  890,  833,  828
680,  779,  778,  839, 1192
681,  958,  960,  909,  907
682,  866,  803,  862,  916
683,  850,  904,  888,  831
684,  875,  872,  812,  818
685,  852,  905,  906,  853
686,  788, 1182,  848,  847
687,  919,  973,  968,  916
688,  898,  842, 1168,  950
689,  848,  849,  903,  902
690,  849,  848, 1182,  790
691,  849,  843,  899,  903
692,  902,  900,  847,  848
693,  783,  840,  904,  850
694,  854,  794,  801,  860
695,  989, 1000,  956,  972
696,  853,  906, 1063,  978
697,  800,  859, 1193,  802
698,  884,  885,  828,  829
699,  855,  800, 1185,  796
700,  799,  857,  910,  856
701, 1012, 1008,  962,  966
702,  811,  867,  870,  868
703,  862, 1174,  919,  916
704,  802, 1193,  863,  805
705, 1029, 1071, 1073, 1033
706,  861,  740,  743,  809
707,  915,  917,  965,  961
708,  970,  920, 1180,  967
709,  798,  868,  857, 1172
710,  969,  981,  927, 1017
711,  873,  927,  981, 1161
712, 1161,  814,  817,  873
713,  873,  817,  813,  911
714, 1058, 1014,  968, 1019
715,  911,  813,  858,  923
716,  875,  818,  982,  901
717,  845,  898,  901,  982
718,  923,  858,  876,  924
719,  871, 1161,  981,  918
720,  792,  851,  928,  877
721,  930, 1167,  880, 1157
722,  929,  822,  878,  977
723,  821,  757,  880, 1167
724,  949,  891,  985,  986
725,  934,  882, 1171,  937
726, 1052, 1011,  957, 1006
727,  944,  895,  890,  940
728,  943,  939,  884,  887
729,  941,  904,  840,  955
730,  941,  942,  888,  904
731,  893, 1168,  889,  946
732,  894,  947,  945,  892
733, 1013,  964, 1194, 1010
734,  935,  933,  826,  883
735,  837,  892,  955,  840
736,  925,  869,  926,  976
737,  834,  889, 1168,  842
738, 1192,  896,  894,  838
739,  839,  836,  895,  948
740,  997, 1040, 1039,  995
741,  998,  990,  943,  951
742,  893,  946,  994, 1005
743,  846,  842,  898,  845
744,  985,  891,  886, 1025
745,  900,  952,  951,  897
746,  956,  905,  928,  972
747, 1041, 1035,  998, 1001
748,  953, 1178,  949, 1003
749, 1176,  851,  854,  908
750,  908,  854,  860,  915
751, 1023,  979,  932,  978
752,  856,  910,  959,  907
753,  863,  912,  917,  864
754,  885,  938,  940,  890
755,  912,  859,  909,  960
756, 1119, 1125, 1143, 1118
757,  868,  870,  922,  914
758,  874,  920,  924,  876
759,  859,  912,  863, 1193
760,  913,  861,  809,  871
761,  870,  867,  921,  971
762,  967,  916,  968, 1014
763,  938, 1029,  988,  940
764,  918,  921,  867,  865
765,  926,  869,  872,  875
766,  942,  946,  889,  888
767,  920,  874,  866, 1180
768,  981,  969,  921,  918
769,  924,  920,  970,  974
770, 1055, 1095, 1093, 1056
771,  942,  993,  994,  946
772,  875,  901,  984,  926
773,  984,  901,  898,  950
774,  873,  911,  963,  927
775,  911,  923,  975,  963
776,  937,  977,  930,  934
777,  882,  826,  933, 1171
778,  878, 1167,  930,  977
779,  977,  937, 1177,  987
780,  934,  930, 1157,  825
781,  883,  936,  980,  935
782, 1181,  954,  902,  903
783, 1101, 1146, 1129, 1100
784,  955, 1004,  991,  941
785,  941,  991,  993,  942
786,  952,  900,  902,  954
787,  989, 1031, 1032, 1000
788, 1133, 1111, 1124, 1198
789,  895,  944,  996,  948
790,  947,  894,  896,  948
791,  976,  926,  984,  950
792,  992,  944,  940,  988
793,  990,  998, 1035, 1030
794,  972, 1176, 1011,  989
795,  899,  891,  949, 1178
796,  933,  935,  983, 1175
797, 1074, 1199, 1081, 1109
798, 1001,  952, 1002, 1042
799, 1181, 1178,  953,  954
800,  949,  986,  999, 1003
801,  892,  945, 1004,  955
802, 1022, 1098, 1063,  906
803,  906,  905,  956, 1022
804,  908,  957, 1011, 1176
805,  908,  915,  961,  957
806,  907,  959, 1009,  958
807,  914,  922,  966,  962
808,  964,  912,  960, 1194
809,  991, 1034, 1036,  993
810,  917,  912,  964,  965
811,  922,  870,  971,  966
812, 1019,  968,  973, 1005
813,  973,  919,  925,  976
814, 1102, 1095, 1080, 1078
815, 1017, 1016,  971,  969
816, 1008, 1050, 1046, 1009
817,  923,  924,  974,  975
818, 1016, 1012,  966,  971
819,  972,  928,  851, 1176
820,  893, 1005,  950, 1168
821, 1015,  970,  967, 1014
822,  974, 1018, 1020,  975
823, 1045,  985, 1025,  987
824, 1064,  768,  979, 1023
825, 1027,  979,  768,  624
826, 1158, 1066,  766,  622
827,  935,  980, 1024,  983
828,  929,  977,  987, 1025
829,  999, 1045, 1028, 1184
830,  937, 1171, 1061, 1177
831, 1061, 1175, 1114, 1068
832, 1029,  938,  939, 1030
833, 1037, 1077, 1079, 1040
834, 1031, 1075, 1072, 1032
835,  939,  943,  990, 1030
836,  951,  952, 1001,  998
837, 1004, 1044, 1034,  991
838, 1037,  996,  944,  992
839,  993, 1036, 1038,  994
840,  995,  945,  947,  997
841,  997,  947,  948,  996
842,  988, 1029, 1033,  992
843, 1099, 1024,  980, 1067
844, 1138, 1113, 1139, 1144
845, 1003, 1002,  954,  953
846, 1184, 1028, 1183, 1069
847, 1043, 1184, 1069, 1084
848, 1140, 1116, 1132, 1179
849,  945,  995, 1044, 1004
850, 1005,  973,  976,  950
851, 1006,  957,  961, 1187
852,  965, 1188, 1187,  961
853, 1007,  960,  958, 1049
854, 1189, 1087, 1119, 1118
855, 1047, 1187, 1188, 1053
856, 1013, 1188,  965,  964
857, 1011, 1052, 1031,  989
858, 1120, 1087, 1050, 1054
859, 1105, 1073, 1071, 1106
860, 1012, 1054, 1050, 1008
861,  970, 1015, 1018,  974
862, 1056, 1059, 1018, 1015
863, 1017,  927,  963, 1021
864,  975, 1020, 1021,  963
865, 1078, 1034, 1076, 1110
866, 1019, 1005,  994, 1038
867, 1017, 1021, 1057, 1016
868,  956, 1000, 1062, 1022
869, 1097, 1070, 1064, 1023
870, 1026, 1067,  980,  936
871, 1066, 1165, 1162,  766
872, 1045,  999,  986,  985
873, 1065,  983, 1024, 1103
874, 1111, 1075, 1092, 1124
875, 1109, 1138, 1135, 1106
876, 1010, 1048, 1051, 1013
877,  992, 1033, 1077, 1037
878,  995, 1039, 1191, 1044
879, 1055, 1014, 1058, 1186
880, 1040, 1079, 1082, 1039
881,  996, 1037, 1040,  997
882, 1038, 1186, 1058, 1019
883, 1118, 1117, 1086, 1189
884, 1077, 1033, 1073, 1107
885, 1042, 1002, 1003, 1043
886, 1041, 1083, 1196, 1081
887, 1184, 1043, 1003,  999
888, 1028, 1068, 1114, 1183
889, 1041, 1001, 1042, 1083
890, 1069, 1065, 1103, 1084
891, 1196, 1115, 1113, 1081
892, 1045,  987, 1068, 1028
893, 1086, 1049, 1046, 1189
894, 1006, 1187, 1047, 1190
895, 1048, 1010, 1007, 1090
896, 1090, 1007, 1049, 1086
897, 1012, 1016, 1057, 1054
898, 1136, 1137, 1108, 1149
899, 1107, 1201, 1134, 1122
900, 1052, 1092, 1075, 1031
901, 1013, 1051, 1053, 1188
902, 1056, 1093, 1094, 1059
903, 1055, 1056, 1015, 1014
904, 1020, 1060, 1057, 1021
905, 1078, 1080, 1036, 1034
906, 1054, 1057, 1060, 1120
907, 1020, 1018, 1059, 1060
908,  983, 1065, 1114, 1175
909, 1000, 1032, 1096, 1062
910, 1023,  978, 1063, 1097
911, 1098, 1022, 1062, 1127
912, 1069, 1183, 1114, 1065
913, 1162, 1026,  936, 1159
914, 1066, 1158, 1070, 1101
915, 1101, 1166, 1165, 1066
916, 1131, 1129, 1127, 1145
917, 1064, 1070, 1158,  764
918, 1071, 1029, 1030, 1074
919, 1074, 1030, 1035, 1199
920, 1201, 1107, 1073, 1105
921, 1041, 1081, 1199, 1035
922, 1092, 1052, 1006, 1190
923, 1198, 1124, 1195, 1088
924, 1076, 1034, 1044, 1191
925, 1142, 1130, 1197, 1121
926, 1122, 1123, 1200, 1107
927, 1095, 1055, 1186, 1080
928, 1038, 1036, 1080, 1186
929, 1109, 1081, 1113, 1138
930, 1130, 1142, 1136, 1112
931, 1042, 1043, 1085, 1083
932, 1085, 1043, 1084, 1116
933, 1039, 1082, 1149, 1191
934, 1050, 1087, 1189, 1046
935, 1125, 1119, 1094, 1093
936, 1047, 1053, 1091, 1088
937, 1091, 1053, 1051, 1089
938, 1089, 1051, 1048, 1197
939, 1090, 1121, 1197, 1048
940, 1120, 1060, 1059, 1094
941, 1198, 1088, 1134, 1201
942, 1095, 1102, 1125, 1093
943, 1094, 1119, 1087, 1120
944, 1032, 1072, 1126, 1096
945, 1129, 1146, 1098, 1127
946, 1062, 1096, 1145, 1127
947, 1100, 1067, 1166, 1101
948, 1103, 1024, 1099, 1132
949, 1067, 1100, 1128, 1099
950, 1131, 1128, 1100, 1129
951, 1136, 1142, 1141, 1137
952, 1116, 1084, 1103, 1132
953, 1074, 1109, 1106, 1071
954, 1104, 1072, 1075, 1111
955, 1111, 1133, 1135, 1104
956, 1108, 1076, 1191, 1149
957, 1102, 1078, 1110, 1147
958, 1112, 1200, 1123, 1130
959, 1200, 1079, 1077, 1107
960, 1123, 1089, 1197, 1130
961, 1112, 1082, 1079, 1200
962, 1083, 1085, 1115, 1196
963, 1115, 1085, 1116, 1140
964, 1132, 1099, 1128, 1179
965, 1086, 1117, 1121, 1090
966, 1143, 1147, 1137, 1141
967, 1091, 1122, 1134, 1088
968, 1123, 1122, 1091, 1089
969, 1124, 1092, 1190, 1195
970, 1138, 1144, 1104, 1135
971, 1145, 1126, 1148, 1131
972, 1128, 1131, 1148, 1179
973, 1133, 1105, 1106, 1135
974, 1110, 1108, 1137, 1147
975, 1139, 1113, 1115, 1140
976, 1141, 1117, 1118, 1143
977, 1142, 1121, 1117, 1141
978, 1147, 1143, 1125, 1102
979, 1144, 1126, 1072, 1104
980, 1148, 1126, 1144, 1139
981, 1146, 1097, 1063, 1098
982, 1140, 1179, 1148, 1139
983, 1149, 1082, 1112, 1136
984, 1156, 1154,  608,  757
985, 1159,  623,  766, 1162
986, 1026, 1162, 1165, 1166
987, 1170,  701, 1173,  789
988, 1171,  933, 1175, 1061
989,  903,  899, 1178, 1181
990, 1195, 1190, 1047, 1088
991, 1194,  960, 1007, 1010
992, 1133, 1198, 1201, 1105
 998, 1277, 1268, 1241, 1234
 999, 1212,  163,  164, 1205
1000, 1403, 1359, 1319, 1307
1001, 1262, 1257, 1295, 1297
1002,  157, 1209, 1253,  156
1003,  149,  150, 1229, 1397
1004, 1220, 1202, 1235, 1251
1005,  135,    7,  136, 1219
1006, 1234, 1219, 1217, 1277
1007, 1234, 1241,  133,  134
1008,  138, 1221, 1217,  137
1009,  140, 1228, 1231,  139
1010, 1267, 1240, 1316, 1306
1011, 1215, 1216, 1265, 1255
1012, 1258, 1256, 1213, 1214
1013, 1232,  144,    8, 1225
1014,  161, 1208, 1206,  160
1015,  160, 1206, 1207,  159
1016, 1270, 1279, 1248, 1244
1017,  162, 1204, 1208,  161
1018, 1218,  141,  142, 1224
1019,  141, 1218, 1228,  140
1020, 1219,  136,  137, 1217
1021,  153,    2,   23, 1202
1022, 1202,   23,   22, 1235
1023, 1202, 1220,  152,  153
1024, 1220, 1222,  151,  152
1025, 1222, 1229,  150,  151
1026, 1260, 1259, 1299, 1301
1027, 1380, 1396, 1390, 1377
1028,   19, 1236, 1247,   20
1029, 1251, 1235, 1246, 1400
1030, 1266,  148,  149, 1397
1031, 1244, 1233, 1278, 1270
1032,   14, 1245, 1237,   15
1033,  158, 1211, 1209,  157
1034, 1210,  155,  156, 1253
1035, 1252,  154,  155, 1210
1036,   12, 1252, 1249,   13
1037,   12,    1,  154, 1252
1038, 1285, 1287, 1226, 1223
1039,  146, 1223, 1226,  145
1040,  144, 1232, 1227,  143
1041, 1205,  164,  165, 1213
1042, 1214,  166,  167, 1215
1043, 1258, 1214, 1215, 1255
1044, 1302, 1300, 1258, 1303
1045,  166, 1214, 1213,  165
1046, 1254, 1305, 1304, 1216
1047,  127,  128, 1238, 1239
1048,  124,  125, 1351, 1203
1049,  124, 1203,  171,    6
1050, 1239, 1250,  126,  127
1051,  169, 1254, 1216,  168
1052, 1204,  162,  163, 1212
1053, 1262, 1259, 1206, 1208
1054,  159, 1207, 1211,  158
1055,  145, 1226, 1225,    8
1056,   15, 1237, 1233,   16
1057,   13, 1249, 1245,   14
1058, 1259, 1260, 1207, 1206
1059, 1215,  167,  168, 1216
1060, 1284, 1283, 1218, 1224
1061,  129,  130, 1242, 1243
1062, 1254,  169,  170, 1203
1063, 1314, 1315, 1276, 1271
1064, 1219, 1234,  134,  135
1065, 1221,  138,  139, 1231
1066, 1267, 1242,  130,  131
1067, 1224,  142,  143, 1227
1068,   21, 1246, 1235,   22
1069, 1241, 1240,  132,  133
1070, 1236,   19,   18, 1248
1071, 1223,  146,  147, 1230
1072, 1230,  147,  148, 1266
1073, 1300, 1298, 1256, 1258
1074, 1261, 1257, 1204, 1212
1075, 1294, 1295, 1257, 1261
1076, 1257, 1262, 1208, 1204
1077, 1256, 1263, 1205, 1213
1078, 1272, 1275, 1243, 1242
1079, 1240, 1267,  131,  132
1080,   20, 1247, 1246,   21
1081, 1244,   17,   16, 1233
1082, 1316, 1268, 1401, 1318
1083, 1291, 1289, 1232, 1225
1084, 1287, 1291, 1225, 1226
1085, 1211, 1207, 1260, 1264
1086, 1221, 1282, 1277, 1217
1087, 1400, 1273, 1398, 1251
1088, 1248,   18,   17, 1244
1089, 1274, 1334, 1309, 1280
1090,  128,  129, 1243, 1238
1091, 1271, 1276, 1239, 1238
1092, 1240, 1241, 1268, 1316
1093, 1228, 1218, 1283, 1292
1094, 1325, 1283, 1284, 1404
1095, 1259, 1262, 1297, 1299
1096, 1334, 1274, 1210, 1253
1097, 1247, 1273, 1400, 1246
1098, 1236, 1248, 1279, 1281
1099, 1290, 1398, 1273, 1319
1100, 1249, 1252, 1210, 1274
1101, 1351, 1250, 1399, 1305
1102,  125,  126, 1250, 1351
1103, 1222, 1220, 1251, 1398
1104, 1209, 1211, 1264, 1293
1105, 1323, 1324, 1286, 1289
1106, 1296, 1294, 1261, 1263
1107, 1329, 1328, 1302, 1303
1108, 1288, 1285, 1223, 1230
1109, 1237, 1245, 1280, 1269
1110, 1263, 1261, 1212, 1205
1111, 1366, 1363, 1333, 1336
1112, 1298, 1296, 1263, 1256
1113, 1342, 1338, 1385, 1344
1114, 1282, 1221, 1231, 1401
1115, 1268, 1277, 1282, 1401
1116, 1269, 1278, 1233, 1237
1117, 1395, 1346, 1373, 1386
1118, 1238, 1243, 1275, 1271
1119, 1242, 1267, 1306, 1272
1120, 1349, 1402, 1361, 1341
1121, 1247, 1236, 1281, 1273
1122, 1398, 1290, 1229, 1222
1123, 1245, 1249, 1274, 1280
1124, 1334, 1293, 1342, 1309
1125, 1360, 1329, 1407, 1375
1126, 1370, 1340, 1315, 1347
1127, 1250, 1239, 1276, 1399
1128, 1374, 1345, 1344, 1385
1129, 1343, 1372, 1373, 1405
1130, 1270, 1310, 1311, 1279
1131, 1290, 1327, 1397, 1229
1132, 1231, 1228, 1292, 1401
1133, 1224, 1227, 1286, 1284
1134, 1364, 1362, 1379, 1378
1135, 1227, 1232, 1289, 1286
1136, 1321, 1322, 1291, 1287
1137, 1320, 1321, 1287, 1285
1138, 1230, 1266, 1317, 1288
1139, 1310, 1270, 1278, 1312
1140, 1319, 1273, 1281, 1307
1141, 1333, 1331, 1297, 1295
1142, 1330, 1332, 1298, 1300
1143, 1326, 1292, 1283, 1325
1144, 1253, 1209, 1293, 1334
1145, 1264, 1260, 1301, 1338
1146, 1336, 1333, 1295, 1294
1147, 1365, 1363, 1377, 1408
1148, 1350, 1320, 1285, 1288
1149, 1303, 1258, 1255, 1265
1150, 1322, 1323, 1289, 1291
1151, 1313, 1269, 1280, 1309
1152, 1308, 1275, 1272, 1341
1153, 1304, 1339, 1265, 1216
1154, 1275, 1308, 1314, 1271
1155, 1305, 1254, 1203, 1351
1156, 1339, 1304, 1340, 1370
1157, 1307, 1281, 1279, 1311
1158, 1341, 1272, 1306, 1349
1159, 1378, 1379, 1392, 1391
1160, 1312, 1278, 1269, 1313
1161, 1331, 1335, 1299, 1297
1162, 1387, 1408, 1389, 1386
1163, 1363, 1365, 1331, 1333
1164, 1338, 1342, 1293, 1264
1165, 1345, 1312, 1313, 1344
1166, 1375, 1407, 1347, 1348
1167, 1266, 1397, 1327, 1317
1168, 1316, 1318, 1349, 1306
1169, 1332, 1337, 1296, 1298
1170, 1328, 1330, 1300, 1302
1171, 1288, 1317, 1376, 1350
1172, 1360, 1362, 1328, 1329
1173, 1393, 1392, 1379, 1388
1174, 1284, 1286, 1324, 1404
1175, 1393, 1388, 1384, 1358
1176, 1406, 1357, 1393, 1358
1177, 1292, 1326, 1318, 1401
1178, 1319, 1359, 1327, 1290
1179, 1314, 1348, 1347, 1315
1180, 1322, 1354, 1356, 1323
1181, 1353, 1354, 1322, 1321
1182, 1352, 1353, 1321, 1320
1183, 1344, 1313, 1309, 1342
1184, 1301, 1299, 1335, 1369
1185, 1337, 1336, 1294, 1296
1186, 1380, 1377, 1363, 1366
1187, 1323, 1356, 1355, 1324
1188, 1303, 1265, 1339, 1329
1189, 1340, 1304, 1305, 1399
1190, 1315, 1340, 1399, 1276
1191, 1310, 1343, 1405, 1311
1192, 1312, 1345, 1343, 1310
1193, 1369, 1385, 1338, 1301
1194, 1374, 1383, 1387, 1372
1195, 1345, 1374, 1372, 1343
1196, 1327, 1359, 1376, 1317
1197, 1311, 1405, 1403, 1307
1198, 1348, 1314, 1308, 1371
1199, 1371, 1308, 1341, 1361
1200, 1324, 1355, 1357, 1404
1201, 1349, 1318, 1326, 1402
1202, 1376, 1359, 1403, 1346
1203, 1381, 1382, 1368, 1367
1204, 1364, 1367, 1332, 1330
1205, 1378, 1381, 1367, 1364
1206, 1362, 1364, 1330, 1328
1207, 1404, 1357, 1406, 1325
1208, 1371, 1361, 1358, 1384
1209, 1325, 1406, 1402, 1326
1210, 1381, 1378, 1391, 1394
1211, 1394, 1396, 1382, 1381
1212, 1335, 1331, 1365, 1383
1213, 1336, 1337, 1368, 1366
1214, 1382, 1396, 1380, 1366
1215, 1337, 1332, 1367, 1368
1216, 1329, 1339, 1370, 1407
1217, 1386, 1373, 1372, 1387
1218, 1376, 1346, 1395, 1350
1219, 1405, 1373, 1346, 1403
1220, 1383, 1374, 1369, 1335
1221, 1348, 1371, 1384, 1375
1222, 1395, 1352, 1320, 1350
1223, 1389, 1352, 1395, 1386
1224, 1379, 1362, 1360, 1388
1225, 1388, 1360, 1375, 1384
1226, 1390, 1353, 1352, 1389
1227, 1383, 1365, 1408, 1387
1228, 1377, 1390, 1389, 1408
1229, 1355, 1356, 1391, 1392
1230, 1357, 1355, 1392, 1393
1231, 1394, 1356, 1354, 1396
1232, 1396, 1354, 1353, 1390
1233, 1361, 1402, 1406, 1358
1249,  134, 1467, 1469,  135
1250, 1468, 1566, 1562, 1473
1251,  269,  270, 1481, 1474
1252, 1440, 1438, 1521, 1548
1253,  180, 1409, 1486,  179
1254, 1467,  134,  133, 1470
1255, 1470,  133,  132, 1473
1256, 1740, 1560, 1650, 1747
1257, 1589, 1583, 1490, 1491
1258, 1487,  176,  177, 1490
1259,  129, 1472, 1471,  130
1260,  175, 1513, 1488,  174
1261, 1585, 1584, 1513, 1487
1262,  174, 1488, 1489,  173
1263, 1582,  172,  173, 1489
1264,  124, 1582, 1565,  125
1265,  124,    6,  172, 1582
1266, 1583, 1585, 1487, 1490
1267,  130, 1471, 1468,  131
1268,  179, 1486, 1491,  178
1269, 1472,  129,  128, 1559
1270, 1409,  180,  181, 1410
1271, 1411,  182,  183, 1412
1272, 1412,  183,  184, 1413
1273, 1413,  184,  185, 1414
1274,  182, 1411, 1410,  181
1275, 1459,  251,  252, 1460
1276, 1425,  191,  192, 1424
1277, 1454, 1455, 1538, 1534
1278,  244, 1430, 1453,  243
1279,  242, 1431, 1452,  241
1280, 1437, 1436,  221,  222
1281, 1422, 1421, 1510, 1493
1282,  218,  219, 1435, 1522
1283,  217,  218, 1522, 1523
1284, 1485, 1496, 1581, 1609
1285, 1523, 1539,  216,  217
1286, 1524, 1525,  214,  215
1287,  212,  213, 1526, 1517
1288, 1509,  203,  204, 1503
1289, 1509, 1503, 1660, 1586
1290, 1661, 1749, 1433, 1610
1291,  209,  210, 1516, 1433
1292,  208,  209, 1433, 1749
1293,  207,  208, 1749, 2298
1294,  206, 2298, 1418,  205
1295,    9,  207, 2298,  206
1296, 1660, 1503, 1418, 1661
1297, 1611, 1434, 1517, 1648
1298, 1706, 1738, 1801, 1825
1299, 1496,  200,  201, 1495
1300, 1485,  199,  200, 1496
1301, 1613, 1522, 1435, 1528
1302,  198, 1419, 1420,  197
1303,  197, 1420, 1421,  196
1304,  220,  221, 1436, 1451
1305, 1430, 1454, 1534, 1551
1306, 1543, 1436, 1437, 1612
1307, 1441,  238,  239, 1450
1308, 1441, 1450, 1544, 1529
1309,  237, 1438, 1440,  236
1310,  238, 1441, 1438,  237
1311, 1443, 1531, 1645, 1519
1312,  234, 1448, 1444,  233
1313, 1443, 1446, 1545, 1531
1314,  233, 1444, 1445,  232
1315, 1533, 1532, 1714, 1545
1316,  232, 1445, 1447,  231
1317, 1532, 1533, 1445, 1444
1318,  230,   10,  231, 1447
1319, 1442,  235,  236, 1440
1320, 1622, 1722, 1806, 1728
1321, 1432,  240,  241, 1452
1322, 1431,  242,  243, 1453
1323, 1417,  194,  195, 1422
1324, 1454,  245,  246, 1455
1325, 1455, 1456, 1553, 1538
1326,  193, 1423, 1424,  192
1327,  248, 1429, 1456,  247
1328, 1415, 1426, 1498, 1497
1329, 1601, 1677, 1678, 1603
1330,  267,  268, 1476, 1484
1331, 1414, 1428, 1515, 1499
1332,  249, 1457, 1429,  248
1333,  250, 1458, 1457,  249
1334,  251, 1459, 1458,  250
1335, 1478, 1477,  265,  266
1336,  254, 1462, 1461,  253
1337,  255, 1463, 1462,  254
1338,  257, 1465, 1464,  256
1339,  259, 2299, 1466,  258
1340,   11,  260, 2299,  259
1341,  135, 1469, 1569,    7
1342, 1668, 1667, 1577, 1570
1343, 1563, 1653, 1654, 1566
1344, 1474, 1476,  268,  269
1345, 1459, 1460, 1537, 1536
1346, 1460, 1461, 1555, 1537
1347, 1482, 1573, 1578, 1483
1348,  263,  264, 1482, 1483
1349,  258, 1466, 1465,  257
1350, 1414,  185,  186, 1428
1351, 1501, 1500, 1412, 1413
1352, 1428,  186,  187, 1427
1353, 1413, 1414, 1499, 1501
1354,  188, 1415, 1427,  187
1355, 1637, 1702, 1701, 1621
1356, 1415,  188,  189, 1426
1357, 1497, 1502, 1427, 1415
1358, 1426,  189,  190, 1416
1359, 1416,  190,  191, 1425
1360, 1535, 1540, 1457, 1458
1361,  194, 1417, 1423,  193
1362,  245, 1454, 1430,  244
1363, 1422,  195,  196, 1421
1364, 1592, 1591, 1507, 1492
1365,  205, 1418, 1503,  204
1366, 1419,  198,  199, 1485
1367, 1618, 1539, 1523, 1647
1368, 1420, 1419, 1504, 1505
1369, 1417, 1422, 1493, 1506
1370, 1492, 1507, 1425, 1424
1371, 1685, 1592, 1594, 1686
1372, 1612, 1437, 1518, 1646
1373,  223,  224, 1439, 1518
1374,  240, 1432, 1450,  239
1375,  210,  211, 1434, 1516
1376, 1649, 1700, 1753, 1610
1377,  211,  212, 1517, 1434
1378, 1524, 1615, 1616, 1525
1379, 1534, 1538, 1620, 1630
1380,  219,  220, 1451, 1435
1381,  222,  223, 1518, 1437
1382, 1432, 1452, 1542, 1549
1383,  224,  225, 1449, 1439
1384, 1436, 1543, 1541, 1451
1385, 1625, 1624, 1547, 1548
1386, 1443, 1519,  226,  227
1387, 1545, 1714, 1622, 1531
1388,  235, 1442, 1448,  234
1389, 1519, 1449,  225,  226
1390, 1448, 1442, 1547, 1546
1391, 1446, 1443,  227,  228
1392, 1446,  228,  229, 1520
1393, 1447, 1445, 1533, 1520
1394,  230, 1447, 1520,  229
1395, 1442, 1440, 1548, 1547
1396, 1452, 1431, 1550, 1542
1397, 1527, 1550, 1431, 1453
1398, 1599, 1680, 1677, 1601
1399, 1455,  246,  247, 1456
1400, 1492, 1508, 1594, 1592
1401, 1591, 1599, 1511, 1507
1402, 1552, 1540, 1637, 1621
1403, 1460,  252,  253, 1461
1404, 1577, 1484, 1476, 1570
1405,  266,  267, 1484, 1478
1406, 1463, 1464, 1558, 1554
1407, 1463,  255,  256, 1464
1408,  264,  265, 1477, 1482
1409, 1480, 1572, 1466, 2299
1410, 1662, 1557, 1572, 1579
1411,  260,  261, 1480, 2299
1412,  261,  262, 1479, 1480
1413, 1475, 1481,  270,  271
1414,  131, 1468, 1473,  132
1415, 1410, 1411, 1514, 1512
1416,  271,    7, 1569, 1475
1417, 1559,  128,  127, 1561
1418, 1472, 1559, 1650, 1560
1419, 1561,  127,  126, 1564
1420,  176, 1487, 1513,  175
1421, 1563, 1471, 1472, 1560
1422, 1411, 1412, 1500, 1514
1423, 1567, 1467, 1470, 1568
1424, 1536, 1535, 1458, 1459
1425, 1497, 1498, 1601, 1603
1426,  262,  263, 1483, 1479
1427, 1562, 1568, 1470, 1473
1428, 1478, 1574, 1576, 1477
1429, 1557, 1662, 1644, 1558
1430, 1691, 1678, 1771, 1781
1431, 1770, 1771, 1678, 1677
1432,  202, 1494, 1495,  201
1433, 1409, 1410, 1512, 1608
1434, 1583, 1589, 1690, 1692
1435, 1490,  177,  178, 1491
1436,  125, 1565, 1564,  126
1437, 1566, 1654, 1655, 1562
1438, 1608, 1580, 1486, 1409
1439, 1424, 1423, 1508, 1492
1440, 1494,  202,  203, 1509
1441, 1587, 1494, 1509, 1586
1442, 1660, 1753, 1671, 1586
1443, 1599, 1601, 1498, 1511
1444, 1426, 1416, 1511, 1498
1445, 1619, 1620, 1538, 1553
1446, 1849, 1776, 1780, 1850
1447, 1571, 1575, 1481, 1475
1448, 1603, 1602, 1502, 1497
1449, 1428, 1427, 1502, 1515
1450, 1419, 1485, 1609, 1504
1451, 1784, 1782, 1683, 1687
1452, 1505, 1510, 1421, 1420
1453, 1506, 1493, 1595, 1593
1454, 1423, 1417, 1506, 1508
1455, 1416, 1425, 1507, 1511
1456, 1508, 1506, 1593, 1594
1457, 1756, 1755, 1667, 1668
1458, 1651, 1590, 1744, 1652
1459, 1499, 1515, 1604, 1606
1460, 1500, 1501, 1607, 1605
1461, 1539, 1524,  215,  216
1462, 1624, 1721, 1722, 1623
1463, 1614, 1449, 1519, 1645
1464, 1438, 1441, 1529, 1521
1465, 1886, 1962, 1946, 1876
1466, 1675, 1674, 1581, 1588
1467,  213,  214, 1525, 1526
1468, 1616, 1615, 1717, 1716
1469, 1453, 1430, 1551, 1527
1470, 1596, 1597, 1505, 1504
1471, 1528, 1435, 1451, 1541
1472, 1543, 1612, 1704, 1635
1473, 1439, 1530, 1646, 1518
1474, 1530, 1439, 1449, 1614
1475, 1546, 1532, 1444, 1448
1476, 1446, 1520, 1533, 1545
1477, 1429, 1457, 1540, 1552
1478, 1593, 1684, 1686, 1594
1479, 1554, 1556, 1462, 1463
1480, 1665, 1664, 1573, 1576
1481, 1642, 1640, 1555, 1556
1482, 1640, 1638, 1537, 1555
1483, 1734, 1641, 1639, 1732
1484, 1522, 1613, 1647, 1523
1485, 1681, 1591, 1592, 1685
1486, 1612, 1646, 1737, 1704
1487, 1450, 1432, 1549, 1544
1488, 1625, 1548, 1521, 1626
1489, 1709, 1711, 1530, 1614
1490, 1532, 1546, 1623, 1714
1491, 1622, 1714, 1623, 1722
1492, 1521, 1529, 1627, 1626
1493, 1721, 1624, 1625, 1723
1494, 1628, 1627, 1529, 1544
1495, 1629, 1628, 1544, 1549
1496, 1540, 1535, 1641, 1637
1497, 1456, 1429, 1552, 1553
1498, 1573, 1482, 1477, 1576
1499, 1556, 1555, 1461, 1462
1500, 1643, 1642, 1556, 1554
1501, 1465, 1557, 1558, 1464
1502, 1580, 1589, 1491, 1486
1503, 1654, 1743, 1742, 1655
1504, 1659, 1750, 1569, 1469
1505, 1468, 1471, 1563, 1566
1506, 1589, 1580, 1673, 1690
1507, 1584, 1590, 1488, 1513
1508, 1582, 1489, 1651, 1565
1509, 1475, 1569, 1750, 1571
1510, 1469, 1467, 1567, 1659
1511, 1826, 1653, 1740, 1831
1512, 1476, 1474, 2300, 1570
1513, 1474, 1481, 1575, 2300
1514, 1656, 1568, 1562, 1655
1515, 1572, 1480, 1479, 1579
1516, 1479, 1483, 1578, 1579
1517, 1574, 1478, 1484, 1577
1518, 1666, 1665, 1576, 1574
1519, 2300, 1575, 2301, 1670
1520, 1676, 1607, 1606, 1679
1521, 1638, 1639, 1536, 1537
1522, 1703, 1699, 1643, 1644
1523, 1698, 1672, 1608, 1512
1524, 1609, 1581, 1674, 1697
1525, 1496, 1495, 1588, 1581
1526, 1590, 1651, 1489, 1488
1527, 1585, 1583, 1692, 1693
1528, 1651, 1652, 1564, 1565
1529, 1865, 1694, 1693, 1768
1530, 1434, 1611, 1649, 1516
1531, 1689, 1675, 1588, 1587
1532, 1495, 1494, 1587, 1588
1533, 1828, 1827, 1745, 1742
1534, 1693, 1694, 1584, 1585
1535, 1634, 1712, 1726, 1633
1536, 1621, 1701, 1720, 1619
1537, 1493, 1510, 1598, 1595
1538, 1551, 1534, 1630, 1634
1539, 1704, 1737, 1823, 1793
1540, 1504, 1609, 1697, 1596
1541, 1727, 1632, 1633, 1726
1542, 1770, 1840, 1839, 1771
1543, 1510, 1505, 1597, 1598
1544, 1621, 1619, 1553, 1552
1545, 1512, 1514, 1600, 1698
1546, 1514, 1500, 1605, 1600
1547, 1515, 1502, 1602, 1604
1548, 1936, 1861, 1866, 2337
1549, 1774, 1777, 1681, 1685
1550, 1841, 1775, 1777, 1843
1551, 1606, 1607, 1501, 1499
1552, 1667, 1666, 1574, 1577
1553, 1759, 1756, 1668, 1670
1554, 1610, 1433, 1516, 1649
1555, 1648, 1517, 1526, 1617
1556, 1525, 1616, 1617, 1526
1557, 1810, 1806, 1722, 1721
1558, 1539, 1618, 1615, 1524
1559, 1528, 1541, 1636, 1705
1560, 1597, 1688, 1687, 1598
1561, 1853, 1845, 1779, 1773
1562, 1773, 1675, 1689, 1772
1563, 1715, 1717, 1615, 1618
1564, 1791, 1792, 1702, 1734
1565, 1624, 1623, 1546, 1547
1566, 1804, 1800, 1709, 1733
1567, 1614, 1645, 1733, 1709
1568, 1875, 1804, 1945, 1957
1569, 1549, 1542, 1631, 1629
1570, 1718, 1628, 1629, 1730
1571, 1542, 1550, 1632, 1631
1572, 1800, 1821, 1711, 1709
1573, 1688, 1597, 1596, 1788
1574, 1633, 1632, 1550, 1527
1575, 1917, 1841, 1843, 1919
1576, 1591, 1681, 1680, 1599
1577, 1634, 1633, 1527, 1551
1578, 1630, 1713, 1712, 1634
1579, 1620, 1719, 1713, 1630
1580, 1635, 1636, 1541, 1543
1581, 1598, 1687, 1683, 1595
1582, 1705, 1736, 1613, 1528
1583, 1640, 1642, 1710, 1707
1584, 1839, 1914, 1918, 1844
1585, 1535, 1536, 1639, 1641
1586, 1665, 1666, 1758, 2305
1587, 1554, 1558, 1644, 1643
1588, 1664, 1663, 1578, 1573
1589, 1761, 1752, 1754, 1902
1590, 1644, 1662, 1752, 1703
1591, 1466, 1572, 1557, 1465
1592, 1663, 1662, 1579, 1578
1593, 1531, 1622, 1728, 1645
1594, 1646, 1530, 1711, 1737
1595, 1753, 1700, 1763, 1671
1596, 1561, 1658, 1650, 1559
1597, 1692, 1767, 1768, 1693
1598, 1561, 1564, 1652, 1658
1599, 1653, 1563, 1560, 1740
1600, 1672, 1673, 1580, 1608
1601, 1748, 1751, 1750, 1659
1602, 1776, 1786, 1676, 1679
1603, 1760, 1759, 1670, 2301
1604, 1568, 1656, 1657, 1567
1605, 1571, 1750, 1751, 1669
1606, 1567, 1657, 1748, 1659
1607, 1749, 1661, 1418, 2298
1608, 1661, 1610, 1753, 1660
1609, 1703, 1752, 1761, 1860
1610, 1859, 1935, 1933, 1863
1611, 1682, 1604, 1602, 1691
1612, 1570, 2300, 1670, 1668
1613, 1607, 1676, 1695, 1605
1614, 1679, 1682, 1780, 1776
1615, 1575, 1571, 1669, 2301
1616, 1741, 1657, 1656, 1745
1617, 1587, 1586, 1671, 1689
1618, 1696, 1600, 1605, 1695
1619, 1672, 1764, 1766, 1673
1620, 1765, 1697, 1674, 1779
1621, 1679, 1606, 1604, 1682
1622, 1603, 1678, 1691, 1602
1623, 1595, 1683, 1684, 1593
1624, 1686, 1684, 1783, 1778
1625, 1778, 1848, 1847, 1774
1626, 1792, 1794, 1701, 1702
1627, 1638, 1708, 1732, 1639
1628, 1805, 1815, 1727, 1726
1629, 1684, 1683, 1782, 1783
1630, 1778, 1774, 1685, 1686
1631, 1788, 1596, 1697, 1765
1632, 1798, 1872, 1873, 1802
1633, 1618, 1647, 1735, 1715
1634, 1706, 1739, 1611, 1648
1635, 1837, 1836, 1767, 1769
1636, 2040, 1981, 1982, 2043
1637, 1690, 1769, 1767, 1692
1638, 1652, 1744, 1746, 1658
1639, 1746, 1744, 1694, 1865
1640, 1590, 1584, 1694, 1744
1641, 1897, 1967, 2024, 1969
1642, 1698, 1789, 1764, 1672
1643, 1600, 1696, 1789, 1698
1644, 1699, 1710, 1642, 1643
1645, 1649, 1611, 1739, 1700
1646, 1702, 1637, 1641, 1734
1647, 1666, 1667, 1755, 1758
1648, 1663, 1754, 1752, 1662
1649, 1802, 1805, 1726, 1712
1650, 1648, 1617, 1738, 1706
1651, 1617, 1616, 1716, 1738
1652, 1640, 1707, 1708, 1638
1653, 1909, 2027, 2023, 2321
1654, 1724, 1627, 1628, 1718
1655, 1902, 1754, 1757, 2171
1656, 1737, 1711, 1821, 1823
1657, 1719, 1620, 1619, 1720
1658, 1876, 1887, 1820, 1813
1659, 1785, 1784, 1687, 1688
1660, 1717, 1715, 1807, 1808
1661, 1730, 1629, 1631, 1729
1662, 1632, 1727, 1729, 1631
1663, 1843, 1777, 1774, 1847
1664, 1723, 1625, 1626, 1725
1665, 1725, 1626, 1627, 1724
1666, 1729, 1816, 1814, 1730
1667, 1724, 1718, 1812, 1818
1668, 1811, 1810, 1721, 1723
1669, 1713, 1719, 1799, 1798
1670, 1798, 1802, 1712, 1713
1671, 1945, 2302, 1819, 2304
1672, 1635, 1704, 1793, 1731
1673, 1863, 1933, 1934, 1864
1674, 1731, 1795, 1636, 1635
1675, 1844, 1781, 1771, 1839
1676, 1733, 1645, 1728, 2302
1677, 1736, 1735, 1647, 1613
1678, 1795, 1824, 1705, 1636
1679, 1825, 1894, 1901, 1903
1680, 1700, 1739, 1903, 1763
1681, 1747, 1650, 1658, 1746
1682, 1669, 1751, 1832, 2303
1683, 1745, 1656, 1655, 1742
1684, 1743, 1654, 1653, 1826
1685, 1829, 1895, 1967, 1897
1686, 1836, 1898, 1768, 1767
1687, 1746, 1865, 1830, 1747
1688, 1657, 1741, 1762, 1748
1689, 1754, 1663, 1664, 1757
1690, 1664, 1665, 2305, 1757
1691, 1695, 1676, 1786, 1787
1692, 1760, 2303, 1900, 1908
1693, 1710, 1699, 1790, 1707
1694, 1850, 1920, 1927, 1849
1695, 2319, 1797, 1796, 2320
1696, 1854, 1786, 1776, 1849
1697, 1762, 1832, 1751, 1748
1698, 1741, 1745, 1827, 1966
1699, 1860, 1790, 1699, 1703
1700, 1966, 1833, 1762, 1741
1701, 1772, 1689, 1671, 1763
1702, 1696, 1695, 1787, 1858
1703, 1788, 1765, 1835, 1857
1704, 1779, 1674, 1675, 1773
1705, 1828, 1742, 1743, 1829
1706, 1673, 1766, 1769, 1690
1707, 1838, 1911, 1923, 1846
1708, 1677, 1680, 1775, 1770
1709, 1781, 1844, 1850, 1780
1710, 1801, 1885, 1894, 1825
1711, 1901, 1772, 1763, 1903
1712, 1794, 1809, 1720, 1701
1713, 1777, 1775, 1680, 1681
1714, 1927, 1990, 1993, 1929
1715, 1791, 1803, 1866, 1861
1716, 1716, 1717, 1808, 1822
1717, 1781, 1780, 1682, 1691
1718, 1803, 1732, 1708, 2320
1719, 1805, 1874, 1878, 1815
1720, 1688, 1788, 1857, 1785
1721, 1886, 1876, 1813, 1824
1722, 1842, 1853, 1773, 1772
1723, 1813, 1820, 1735, 1736
1724, 1914, 1977, 1979, 1918
1725, 1858, 1834, 1789, 1696
1726, 1758, 1755, 1904, 1905
1727, 1707, 1790, 1797, 2319
1728, 1791, 1734, 1732, 1803
1729, 1775, 1841, 1840, 1770
1730, 1818, 1817, 1725, 1724
1731, 1791, 1861, 1859, 1792
1732, 1933, 2344, 1996, 1934
1733, 1824, 1813, 1736, 1705
1734, 1982, 1917, 1919, 1987
1735, 1708, 1707, 2319, 2320
1736, 1862, 1797, 1790, 1860
1737, 1909, 1862, 1860, 1761
1738, 1809, 1799, 1719, 1720
1739, 1919, 1843, 1847, 1922
1740, 1738, 1716, 1822, 1801
1741, 1882, 1949, 1954, 1888
1742, 1728, 1806, 1819, 2302
1743, 2304, 1819, 1880, 1953
1744, 1812, 1718, 1730, 1814
1745, 1729, 1727, 1815, 1816
1746, 1887, 2307, 1807, 1820
1747, 1715, 1735, 1820, 1807
1748, 1792, 1859, 1863, 1794
1749, 1723, 1725, 1817, 1811
1750, 2304, 1953, 1957, 1945
1751, 1812, 1877, 1882, 1818
1752, 1783, 1851, 1848, 1778
1753, 1793, 1823, 1892, 1870
1754, 1987, 1919, 1922, 1989
1755, 1731, 1793, 1870, 1867
1756, 2043, 1982, 1987, 2350
1757, 1818, 1882, 1888, 1817
1758, 1804, 1733, 2302, 1945
1759, 1819, 1806, 1810, 1880
1760, 1784, 1855, 1852, 1782
1761, 1821, 1800, 1889, 1891
1762, 1875, 1889, 1800, 1804
1763, 1921, 1842, 1972, 1965
1764, 1873, 1943, 1944, 1874
1765, 1739, 1706, 1825, 1903
1766, 1831, 1740, 1747, 1830
1767, 1832, 1762, 1833, 2306
1768, 1743, 1826, 1895, 1829
1769, 1834, 1838, 1764, 1789
1770, 1764, 1838, 1846, 1766
1771, 2306, 1900, 2303, 1832
1772, 1856, 1787, 1786, 1854
1773, 1857, 1835, 1916, 1912
1774, 1765, 1779, 1845, 1835
1775, 1899, 1898, 1836, 1970
1776, 1769, 1766, 1846, 1837
1777, 1834, 1910, 1911, 1838
1778, 1846, 1923, 1913, 1837
1779, 1897, 1896, 1828, 1829
1780, 1794, 1863, 1864, 1809
1781, 1822, 1890, 1885, 1801
1782, 1851, 1783, 1782, 1852
1783, 1809, 1864, 1869, 1799
1784, 1871, 1803, 2320, 1796
1785, 1799, 1869, 1872, 1798
1786, 1855, 1784, 1785, 1931
1787, 1802, 1873, 1874, 1805
1788, 1759, 1760, 1908, 1907
1789, 1871, 2337, 1866, 1803
1790, 1931, 1785, 1857, 1912
1791, 1867, 1893, 1795, 1731
1792, 1881, 1890, 1822, 1808
1793, 1907, 2293, 1756, 1759
1794, 1858, 1932, 1910, 1834
1795, 1787, 1856, 1932, 1858
1796, 1761, 1902, 2027, 1909
1797, 1937, 2321, 2023, 2077
1798, 1844, 1918, 1920, 1850
1799, 1797, 1862, 1868, 1796
1800, 1840, 1915, 1914, 1839
1801, 1841, 1917, 1915, 1840
1802, 1865, 1768, 1898, 1830
1803, 1979, 2034, 2039, 1985
1804, 1998, 2343, 1936, 1939
1805, 2100, 2101, 2052, 2347
1806, 1877, 1812, 1814, 1879
1807, 1796, 1868, 2330, 1871
1808, 1877, 1950, 1949, 1882
1809, 1816, 1883, 1879, 1814
1810, 2042, 2325, 1986, 1992
1811, 1883, 1816, 1815, 1878
1812, 2349, 1999, 1938, 1934
1813, 1959, 1870, 1892, 1963
1814, 1880, 1810, 1811, 1884
1815, 1884, 1811, 1817, 1888
1816, 1808, 1807, 2307, 1881
1817, 1875, 1957, 2310, 1889
1818, 2040, 2043, 2093, 2087
1819, 1948, 1883, 1878, 1947
1820, 1953, 1880, 1884, 1958
1821, 2308, 1956, 1965, 1972
1822, 1824, 1795, 1893, 1886
1823, 1980, 1978, 1912, 1916
1824, 1946, 1952, 1887, 1876
1825, 1888, 1954, 1958, 1884
1826, 1823, 1821, 1891, 1892
1827, 1960, 1955, 1881, 2307
1828, 1963, 1892, 1891, 1961
1829, 1867, 1942, 1964, 1893
1830, 2008, 1964, 1942, 2007
1831, 1901, 1894, 2308, 1972
1832, 1826, 1831, 1899, 1895
1833, 1966, 1827, 2309, 1968
1834, 1828, 1896, 2309, 1827
1835, 1831, 1830, 1898, 1899
1836, 1833, 1966, 1968, 1971
1837, 1842, 1772, 1901, 1972
1838, 1905, 1906, 2305, 1758
1839, 1904, 1755, 1756, 2293
1840, 2027, 1902, 2171, 2122
1841, 1757, 2305, 1906, 2171
1842, 1868, 2321, 1937, 2330
1843, 1849, 1927, 1929, 1854
1844, 1971, 1973, 2306, 1833
1845, 2028, 2029, 1968, 2309
1846, 1930, 1856, 1854, 1929
1847, 1899, 1970, 1967, 1895
1848, 1910, 1974, 1976, 1911
1849, 1984, 2041, 2044, 1983
1850, 1931, 1912, 1978, 2331
1851, 1916, 1835, 1845, 1928
1852, 1836, 1837, 1913, 1970
1853, 1922, 1847, 1848, 1926
1854, 1926, 1848, 1851, 1925
1855, 1864, 1934, 1938, 1869
1856, 2055, 1998, 1939, 2004
1857, 1852, 1924, 1925, 1851
1858, 1869, 1938, 1941, 1872
1859, 2313, 2081, 1973, 1971
1860, 1853, 1842, 1921, 1928
1861, 1890, 1955, 1956, 2308
1862, 1852, 1855, 1995, 1924
1863, 1872, 1941, 1943, 1873
1864, 1911, 1976, 1984, 1923
1865, 2026, 2024, 1967, 1970
1866, 1995, 1855, 1931, 2331
1867, 1977, 2036, 2034, 1979
1868, 1918, 1979, 1985, 1920
1869, 1973, 2311, 1900, 2306
1870, 2039, 2094, 2098, 2046
1871, 1932, 2000, 1974, 1910
1872, 1856, 1930, 2000, 1932
1873, 1935, 1859, 1861, 1936
1874, 1915, 1981, 1977, 1914
1875, 1920, 1985, 1990, 1927
1876, 2330, 1940, 2337, 1871
1877, 2321, 1868, 1862, 1909
1878, 2133, 2094, 2085, 2131
1879, 1917, 1982, 1981, 1915
1880, 2337, 1940, 1939, 1936
1881, 2034, 2085, 2094, 2039
1882, 1942, 1867, 1870, 1959
1883, 1874, 1944, 1947, 1878
1884, 1943, 2003, 2005, 1944
1885, 2052, 2054, 1996, 1997
1886, 2042, 2091, 2037, 2325
1887, 1962, 1886, 1893, 1964
1888, 2087, 2084, 2036, 2040
1889, 2021, 1959, 1963, 2020
1890, 1883, 1948, 1951, 1879
1891, 1891, 1889, 2310, 1961
1892, 1950, 1877, 1879, 1951
1893, 1947, 2006, 2009, 1948
1894, 2113, 2067, 2063, 2112
1895, 1986, 1980, 1916, 1928
1896, 1952, 1960, 2307, 1887
1897, 2012, 1949, 1950, 2014
1898, 1992, 1921, 1965, 2318
1899, 1992, 1986, 1928, 1921
1900, 2310, 1957, 1975, 2031
1901, 2114, 2167, 2159, 2322
1902, 1946, 2010, 2011, 1952
1903, 1957, 1953, 1958, 1975
1904, 2315, 2031, 2071, 2074
1905, 2022, 1962, 1964, 2008
1906, 2015, 1954, 1949, 2012
1907, 2062, 2006, 2005, 2059
1908, 2107, 2151, 2103, 2346
1909, 1885, 1890, 2308, 1894
1910, 1969, 2025, 1896, 1897
1911, 2041, 2090, 2145, 2044
1912, 1913, 1983, 2026, 1970
1913, 2025, 2028, 2309, 1896
1914, 2081, 2314, 2311, 1973
1915, 1994, 1930, 1929, 1993
1916, 2017, 1958, 1954, 2015
1917, 1923, 1984, 1983, 1913
1918, 2038, 2331, 2037, 2089
1919, 2343, 1998, 2053, 1997
1920, 1960, 2018, 2019, 1955
1921, 1989, 1922, 1926, 1991
1922, 2345, 1991, 1926, 1925
1923, 1938, 1999, 2002, 1941
1924, 1976, 2033, 2041, 1984
1925, 2033, 2086, 2090, 2041
1926, 2055, 2060, 2107, 2346
1927, 2082, 2318, 2016, 2019
1928, 1925, 1924, 1988, 2345
1929, 1941, 2002, 2003, 1943
1930, 1924, 1995, 2051, 1988
1931, 1944, 2005, 2006, 1947
1932, 2153, 2324, 2314, 2081
1933, 2184, 2215, 2356, 2180
1934, 2016, 1956, 1955, 2019
1935, 1985, 2039, 2046, 1990
1936, 2029, 2028, 2030, 2125
1937, 1974, 2035, 2033, 1976
1938, 1997, 1996, 2344, 2343
1939, 2004, 1939, 1940, 2001
1940, 2052, 1997, 2053, 2347
1941, 2085, 2034, 2036, 2084
1942, 1981, 2040, 2036, 1977
1943, 1930, 1994, 2057, 2000
1944, 1937, 2001, 1940, 2330
1945, 2049, 1993, 1990, 2046
1946, 2077, 2023, 2032, 2083
1947, 2004, 2061, 2060, 2055
1948, 2045, 2350, 1987, 1989
1949, 2065, 2012, 2014, 2069
1950, 1942, 1959, 2021, 2007
1951, 2076, 2120, 2335, 2334
1952, 1962, 2022, 2010, 1946
1953, 1948, 2009, 2013, 1951
1954, 2054, 2052, 2101, 2104
1955, 2011, 2064, 2072, 2018
1956, 1952, 2011, 2018, 1960
1957, 2074, 2071, 2322, 2159
1958, 2014, 1950, 1951, 2013
1959, 2063, 2009, 2006, 2062
1960, 2066, 2015, 2012, 2065
1961, 1961, 2310, 2031, 2315
1962, 1958, 2017, 2031, 1975
1963, 2064, 2011, 2010, 2073
1964, 2018, 2072, 2075, 2019
1965, 1963, 1961, 2315, 2020
1966, 2108, 2059, 2058, 2106
1967, 2332, 2072, 2064, 2116
1968, 2032, 2023, 2027, 2122
1969, 2136, 2086, 2088, 2134
1970, 1983, 2044, 2080, 2026
1971, 2122, 2174, 2130, 2032
1972, 2028, 2025, 2317, 2030
1973, 1971, 1968, 2029, 2313
1974, 2081, 2313, 2029, 2125
1975, 2025, 1969, 2079, 2317
1976, 2017, 2316, 2071, 2031
1977, 2176, 2130, 2213, 2245
1978, 2035, 1974, 2000, 2057
1979, 2086, 2033, 2035, 2088
1980, 2050, 1994, 1993, 2049
1981, 2056, 2349, 2054, 2104
1982, 2089, 2037, 2091, 2137
1983, 2325, 1978, 1980, 1986
1984, 2092, 2038, 2089, 2138
1985, 1995, 2331, 2038, 2051
1986, 1998, 2055, 2346, 2053
1987, 1989, 1991, 2048, 2045
1988, 2056, 2002, 1999, 2349
1989, 2080, 2078, 2024, 2026
1990, 2082, 2042, 1992, 2318
1991, 2047, 1991, 2345, 1988
1992, 2058, 2003, 2002, 2056
1993, 2078, 2080, 2044, 2145
1994, 2059, 2005, 2003, 2058
1995, 1988, 2051, 2102, 2047
1996, 2069, 2115, 2326, 2065
1997, 2048, 1991, 2047, 2097
1998, 2129, 2210, 2105, 2124
1999, 2087, 2093, 2135, 2180
2000, 2061, 2004, 2001, 2123
2001, 2093, 2043, 2095, 2141
2002, 1994, 2050, 2111, 2057
2003, 2096, 2095, 2045, 2048
2004, 2106, 2058, 2056, 2104
2005, 2123, 2077, 2083, 2128
2006, 2046, 2098, 2099, 2049
2007, 2258, 2257, 2226, 2228
2008, 2096, 2048, 2097, 2146
2009, 2070, 2007, 2021, 2020
2010, 2009, 2063, 2067, 2013
2011, 2073, 2010, 2022, 2334
2012, 2068, 2076, 2008, 2007
2013, 2068, 2007, 2070, 2117
2014, 2069, 2014, 2013, 2067
2015, 2316, 2017, 2015, 2066
2016, 2110, 2062, 2059, 2108
2017, 2022, 2008, 2076, 2334
2018, 2074, 2070, 2020, 2315
2019, 2065, 2114, 2322, 2066
2020, 2070, 2074, 2159, 2117
2021, 2156, 2110, 2108, 2154
2022, 2126, 2082, 2019, 2075
2023, 2116, 2164, 2338, 2332
2024, 2112, 2063, 2062, 2110
2025, 1937, 2077, 2123, 2001
2026, 2078, 2145, 2124, 2079
2027, 1969, 2024, 2078, 2079
2028, 2317, 2079, 2124, 2105
2029, 2172, 2241, 2273, 2127
2030, 2105, 2323, 2030, 2317
2031, 2100, 2347, 2103, 2148
2032, 2088, 2035, 2057, 2111
2033, 2095, 2043, 2350, 2045
2034, 2353, 2184, 2180, 2135
2035, 2050, 2049, 2099, 2158
2036, 2119, 2137, 2091, 2126
2037, 2126, 2091, 2042, 2082
2038, 2092, 2138, 2187, 2139
2039, 2051, 2038, 2092, 2102
2040, 2101, 2144, 2149, 2104
2041, 2047, 2102, 2150, 2097
2042, 2152, 2106, 2104, 2149
2043, 2165, 2338, 2205, 2187
2044, 2121, 2120, 2076, 2068
2045, 2107, 2060, 2109, 2155
2046, 2134, 2186, 2185, 2136
2047, 2140, 2134, 2088, 2111
2048, 2053, 2346, 2103, 2347
2049, 2084, 2132, 2131, 2085
2050, 2109, 2060, 2061, 2170
2051, 2178, 2179, 2131, 2132
2052, 2185, 2211, 2177, 2210
2053, 2093, 2141, 2353, 2135
2054, 2123, 2128, 2170, 2061
2055, 2142, 2098, 2094, 2133
2056, 2143, 2141, 2095, 2096
2057, 2173, 2170, 2128, 2218
2058, 2253, 2247, 2250, 2261
2059, 2154, 2108, 2106, 2152
2060, 2165, 2187, 2138, 2137
2061, 2167, 2114, 2161, 2327
2062, 2067, 2113, 2115, 2069
2063, 2326, 2161, 2114, 2065
2064, 2198, 2199, 2156, 2154
2065, 2116, 2064, 2073, 2335
2066, 2068, 2117, 2329, 2121
2067, 2143, 2096, 2146, 2351
2068, 2160, 2157, 2200, 2202
2069, 2137, 2119, 2118, 2165
2070, 2118, 2075, 2072, 2332
2071, 2119, 2126, 2075, 2118
2072, 2160, 2113, 2112, 2157
2073, 2206, 2342, 2207, 2289
2074, 2174, 1906, 1905, 2244
2075, 2124, 2145, 2090, 2129
2076, 2323, 2243, 2125, 2030
2077, 1907, 1908, 2127, 2273
2078, 2311, 2127, 1908, 1900
2079, 2130, 2176, 2083, 2032
2080, 2153, 2081, 2125, 2243
2081, 2324, 2241, 2172, 2314
2082, 2084, 2087, 2180, 2132
2083, 2182, 2144, 2183, 2216
2084, 2148, 2103, 2151, 2193
2085, 2186, 2190, 2226, 2222
2086, 2178, 2356, 2215, 2214
2087, 2129, 2090, 2086, 2136
2088, 2092, 2139, 2150, 2102
2089, 2158, 2140, 2111, 2050
2090, 2147, 2099, 2098, 2142
2091, 2182, 2194, 2149, 2144
2092, 2296, 2275, 2251, 2254
2093, 2097, 2150, 2195, 2146
2094, 2144, 2101, 2100, 2183
2095, 2157, 2112, 2110, 2156
2096, 2151, 2107, 2155, 2197
2097, 2140, 2190, 2186, 2134
2098, 2133, 2131, 2179, 2181
2099, 2170, 2173, 2209, 2109
2100, 2142, 2133, 2181, 2192
2101, 2272, 2175, 2271, 2290
2102, 2243, 2323, 2177, 2328
2103, 2353, 2352, 2221, 2184
2104, 2212, 2209, 2173, 2260
2105, 2355, 2248, 2249, 2354
2106, 2198, 2154, 2152, 2196
2107, 2202, 2235, 2237, 2204
2108, 2099, 2147, 2201, 2158
2109, 2168, 2339, 2169, 2208
2110, 2113, 2160, 2162, 2115
2111, 2327, 2333, 2329, 2167
2112, 2163, 2326, 2115, 2162
2113, 2161, 2326, 2163, 2203
2114, 2116, 2335, 2166, 2164
2115, 2165, 2118, 2332, 2338
2116, 2339, 2168, 2166, 2340
2117, 2234, 2264, 2265, 2235
2118, 2117, 2159, 2167, 2329
2119, 2202, 2204, 2162, 2160
2120, 2340, 2166, 2335, 2120
2121, 2203, 2169, 2327, 2161
2122, 2122, 2171, 1906, 2174
2123, 2284, 2273, 2241, 2288
2124, 2314, 2172, 2127, 2311
2125, 2213, 2130, 2174, 2244
2126, 2271, 2336, 2287, 2292
2127, 2175, 2241, 2324, 2242
2128, 2211, 2336, 2328, 2177
2129, 2176, 2218, 2128, 2083
2130, 2136, 2185, 2210, 2129
2131, 2221, 2352, 2189, 2227
2132, 2152, 2149, 2194, 2196
2133, 2217, 2224, 2181, 2179
2134, 2214, 2217, 2179, 2178
2135, 2191, 2189, 2351, 2232
2136, 2247, 2253, 2249, 2248
2137, 2190, 2140, 2158, 2201
2138, 2212, 2260, 2286, 2246
2139, 2187, 2205, 2223, 2188
2140, 2139, 2187, 2188, 2150
2141, 2238, 2289, 2207, 2239
2142, 2143, 2351, 2189, 2352
2143, 2278, 2275, 2296, 2270
2144, 2146, 2195, 2232, 2351
2145, 2199, 2200, 2157, 2156
2146, 2270, 2212, 2246, 2278
2147, 2147, 2142, 2192, 2236
2148, 2148, 2193, 2216, 2183
2149, 2193, 2151, 2197, 2219
2150, 2195, 2150, 2188, 2225
2151, 2240, 2209, 2212, 2270
2152, 2355, 2254, 2251, 2248
2153, 2231, 2348, 2262, 2233
2154, 2199, 2233, 2234, 2200
2155, 2235, 2265, 2268, 2237
2156, 2207, 2168, 2208, 2239
2157, 2333, 2327, 2169, 2339
2158, 2203, 2163, 2204, 2266
2159, 2205, 2206, 2289, 2223
2160, 2206, 2205, 2338, 2164
2161, 2166, 2168, 2207, 2342
2162, 2200, 2234, 2235, 2202
2163, 2208, 2266, 2341, 2239
2164, 2169, 2203, 2266, 2208
2165, 2341, 2266, 2204, 2237
2166, 2155, 2109, 2209, 2240
2167, 2105, 2210, 2177, 2323
2168, 2257, 2287, 2222, 2226
2169, 2185, 2186, 2222, 2211
2170, 2260, 2173, 2218, 2279
2171, 2228, 2226, 2190, 2201
2172, 2245, 2213, 2277, 2297
2173, 2252, 2250, 2184, 2221
2174, 2182, 2354, 2220, 2194
2175, 2214, 2247, 2248, 2217
2176, 2194, 2220, 2229, 2196
2177, 2215, 2250, 2247, 2214
2178, 2227, 2189, 2191, 2263
2179, 2196, 2229, 2231, 2198
2180, 2225, 2188, 2223, 2274
2181, 2192, 2181, 2224, 2267
2182, 2217, 2248, 2251, 2224
2183, 2263, 2191, 2232, 2256
2184, 2198, 2231, 2233, 2199
2185, 2228, 2201, 2147, 2236
2186, 2278, 2282, 2267, 2275
2187, 2252, 2221, 2227, 2255
2188, 2232, 2195, 2225, 2256
2189, 2233, 2262, 2264, 2234
2190, 2285, 2280, 2265, 2264
2191, 2256, 2225, 2274, 2276
2192, 2238, 2274, 2223, 2289
2193, 2237, 2268, 2269, 2341
2194, 2197, 2155, 2240, 2230
2195, 2273, 2284, 2293, 1907
2196, 2291, 2290, 2295, 2286
2197, 2244, 1905, 1904, 2312
2198, 2312, 2284, 2288, 2277
2199, 2218, 2176, 2245, 2279
2200, 2277, 2213, 2244, 2312
2201, 2292, 2295, 2290, 2271
2202, 2230, 2357, 2219, 2197
2203, 2354, 2249, 2253, 2220
2204, 2261, 2250, 2252, 2348
2205, 2255, 2262, 2348, 2252
2206, 2229, 2220, 2253, 2261
2207, 2230, 2296, 2254, 2357
2208, 2285, 2264, 2262, 2255
2209, 2242, 2336, 2271, 2175
2210, 2258, 2236, 2259, 2283
2211, 2259, 2236, 2192, 2267
2212, 2282, 2283, 2259, 2267
2213, 2231, 2229, 2261, 2348
2214, 2285, 2255, 2227, 2263
2215, 2280, 2276, 2268, 2265
2216, 2224, 2251, 2275, 2267
2217, 2269, 2276, 2274, 2238
2218, 2238, 2239, 2341, 2269
2219, 2240, 2270, 2296, 2230
2220, 2297, 2277, 2288, 2272
2221, 2241, 2175, 2272, 2288
2222, 2284, 2312, 1904, 2293
2223, 2286, 2295, 2294, 2246
2224, 2294, 2282, 2278, 2246
2225, 2263, 2256, 2280, 2285
2226, 2257, 2258, 2283, 2281
2227, 2294, 2281, 2283, 2282
2228, 2297, 2291, 2279, 2245
2229, 2211, 2222, 2287, 2336
2230, 2257, 2281, 2292, 2287
2231, 2290, 2291, 2297, 2272
2232, 2291, 2286, 2260, 2279
2233, 2295, 2292, 2281, 2294
2234, 2301, 1669, 2303, 1760
2235, 2316, 2066, 2322, 2071
2236, 2318, 1965, 1956, 2016
2237, 2324, 2153, 2328, 2242
2238, 1978, 2325, 2037, 2331
2239, 2121, 2329, 2333, 2120
2240, 2339, 2340, 2120, 2333
2241, 1935, 1936, 2343, 2344
2242, 2342, 2206, 2164, 2166
2243, 2349, 1934, 1996, 2054
2244, 2143, 2352, 2353, 2141
2245, 2354, 2182, 2216, 2355
2246, 2357, 2254, 2355, 2216
2247, 2180, 2356, 2178, 2132
*Nset, nset=SENT-1_TOP
   9,  10, 207, 208, 209, 210, 211, 212, 213, 214, 215, 216, 217, 218, 219, 220
 221, 222, 223, 224, 225, 226, 227, 228, 229, 230
*Elset, elset=SENT-1_TOP
 1280, 1282, 1283, 1285, 1286, 1287, 1291, 1292, 1293, 1295, 1304, 1318, 1373, 1375, 1377, 1380
 1381, 1383, 1386, 1389, 1391, 1392, 1394, 1461, 1467
*Nset, nset=SENT-1_BOT
  4,  5, 65, 66, 67, 68, 69, 70, 71, 72, 73, 74, 75, 76, 77, 78
 79, 80, 81, 82, 83, 84, 85, 86, 87, 88
*Elset, elset=SENT-1_BOT
  23,  24,  25,  43,  45,  47,  48,  49,  50,  51,  52,  53,  55,  56,  58,  59
  61,  78, 116, 146, 152, 160, 190, 229, 243
*Nset, nset=SENT-1_ALL, generate
    1,  2357,     1
*Elset, elset=SENT-1_ALL, generate
    1,  2247,     1
** Section: Section-1
*Solid Section, elset=SENT-1_ALL, material=Material-1
,
*System
** 
** MATERIALS
** 
*Material, name=Material-1
*Density
1.,
*User material,Constants=<nProps>
<Gshear>,<Kbulk>,<lamL>,<Amp>,<nu_s0>,<nu_ss>,<dE>
*Depvar
<nSdv>
1,   LambdaBar, LambdaBar
2,   nu_local, nu_local
3,   Achainmax, Achainmax
** 
** BOUNDARY CONDITIONS
** 
** Name: BOT_Fixed Type: Symmetry/Antisymmetry/Encastre
*Boundary
SENT-1_BOT, ENCASTRE
** Name: Temperature Type: Temperature
** ----------------------------------------------------------------
** 
** STEP: Load1
** 
*Step, name=Load1, nlgeom=YES, inc = 100000
*static
0.1, 10., 1.e-9, 10.
** 
** BOUNDARY CONDITIONS
** 
** Name: TOP_Load Type: Displacement/Rotation
*Boundary
SENT-1_TOP, 2, 2, 150.
** 
** OUTPUT REQUESTS
** 
*Restart, write, frequency=0
** 
** FIELD OUTPUT: F-Output-1
** 
*Output, field, number interval=10
*Node Output
NT, U
*Element Output, directions=YES
LE, S, SDV
** 
** HISTORY OUTPUT: H-Output-1
** 
*Output, history, number interval=25
*Node Output, nset=SENT-1_BOT
RF2,
*Node Output, nset=SENT-1_TOP
U2,  
*End Step
** ----------------------------------------------------------------
** 
** STEP: Unload1
** 
*Step, name=Unload1, nlgeom=YES, inc = 100000
*static
0.1, 10., 1.e-9, 10.
** 
** BOUNDARY CONDITIONS
** 
** Name: TOP_Unload Type: Displacement/Rotation
*Boundary
SENT-1_TOP, 2, 2
** 
** OUTPUT REQUESTS
** 
*Restart, write, frequency=0
** 
** FIELD OUTPUT: F-Output-1
** 
*Output, field, number interval=10
*Node Output
NT, U
*Element Output, directions=YES
LE, S, SDV
** 
** HISTORY OUTPUT: H-Output-1
** 
*Output, history, number interval=25
*Node Output, nset=SENT-1_BOT
RF2, 
*Node Output, nset=SENT-1_TOP
U2, 
*End Step
** ----------------------------------------------------------------
** 
** STEP: Reload1
** 
*Step, name=Reload1, nlgeom=YES, inc = 100000
*static
0.1, 10., 1.e-9, 10.
**
** BOUNDARY CONDITIONS
** 
** Name: TOP_Reload Type: Displacement/Rotation
*Boundary
SENT-1_TOP, 2, 2, 250.
** 
** OUTPUT REQUESTS
** 
*Restart, write, frequency=0
** 
** FIELD OUTPUT: F-Output-1
** 
*Output, field, number interval=10
*Node Output
NT, U
*Element Output, directions=YES
LE, S, SDV
** 
** HISTORY OUTPUT: H-Output-1
** 
*Output, history, number interval=25
*Node Output, nset=SENT-1_BOT
RF2, 
*Node Output, nset=SENT-1_TOP
U2, 
*End Step
** ----------------------------------------------------------------
** 
** STEP: Unload2
** 
*Step, name=Unload2, nlgeom=YES, inc = 100000
*static
0.1, 10., 1.e-9, 10.
** 
** BOUNDARY CONDITIONS
** 
** Name: TOP_Unload Type: Displacement/Rotation
*Boundary
SENT-1_TOP, 2, 2
** 
** OUTPUT REQUESTS
** 
*Restart, write, frequency=0
** 
** FIELD OUTPUT: F-Output-1
** 
*Output, field, number interval=10
*Node Output
NT, U
*Element Output, directions=YES
LE, S, SDV
** 
** HISTORY OUTPUT: H-Output-1
** 
*Output, history, number interval=25
*Node Output, nset=SENT-1_BOT
RF2, 
*Node Output, nset=SENT-1_TOP
U2, 
*End Step
** ----------------------------------------------------------------
** 
** STEP: Reload2
** 
*Step, name=Reload2, nlgeom=YES, inc = 100000
*static
0.1, 10., 1.e-9, 10.
** 
** BOUNDARY CONDITIONS
** 
** Name: TOP_Load Type: Displacement/Rotation
*Boundary
SENT-1_TOP, 2, 2, 350.
** 
** OUTPUT REQUESTS
** 
*Restart, write, frequency=0
** 
** FIELD OUTPUT: F-Output-1
** 
*Output, field, number interval=10
*Node Output
NT, U
*Element Output, directions=YES
LE, S, SDV
** 
** HISTORY OUTPUT: H-Output-1
** 
*Output, history, number interval=25
*Node Output, nset=SENT-1_BOT
RF2, 
*Node Output, nset=SENT-1_TOP
U2, 
*End Step
** ----------------------------------------------------------------
** 
** STEP: Unload3
** 
*Step, name=Unload3, nlgeom=YES, inc = 100000
*static
0.1, 10., 1.e-9, 10.
** 
** BOUNDARY CONDITIONS
** 
** Name: TOP_Unload Type: Displacement/Rotation
*Boundary
SENT-1_TOP, 2, 2
** 
** OUTPUT REQUESTS
** 
*Restart, write, frequency=0
** 
** FIELD OUTPUT: F-Output-1
** 
*Output, field, number interval=10
*Node Output
NT, U
*Element Output, directions=YES
LE, S, SDV
** 
** HISTORY OUTPUT: H-Output-1
** 
*Output, history, number interval=25
*Node Output, nset=SENT-1_BOT
RF2, 
*Node Output, nset=SENT-1_TOP
U2, 
*End Step
** ----------------------------------------------------------------