*Heading
** Job name: 2_5 Model name: Model-1
** Generated by: Abaqus/CAE 2024
*Preprint, echo=NO, model=NO, history=NO, contact=NO
** ----------------------------------------------------------------
**
*Parameter
** number of viscous mechanisms
** 
Gshear = 0.19926
Kbulk  = 0.19926e3
lamL   = 2.04
Amp    = 0.6
nu_s0  = 0.6
nu_ss  = 0.95
dE   = 1.e-2
nSdv = 3
nProps = 7
**
** PART INSTANCE: SENT-1
** 
*Node
      1,         250.,  -93.4000015
      2,   117.373077,  -93.4000015
      3,           0.,        -150.
      4,           0.,        -450.
      5,         250.,        -450.
      6,         250.,   93.4000015
      7,   117.373077,   93.4000015
      8,         150.,           0.
      9,         250.,         450.
     10,           0.,         450.
     11,           0.,         150.
     12,   247.497604,  -93.4000015
     13,   244.995209,  -93.4000015
     14,   242.492813,  -93.4000015
     15,   239.990417,  -93.4000015
     16,   237.488022,  -93.4000015
     17,   234.985626,  -93.4000015
     18,   232.483231,  -93.4000015
     19,   229.980835,  -93.4000015
     20,   227.478455,  -93.4000015
     21,   224.976059,  -93.4000015
     22,   222.473663,  -93.4000015
     23,   219.971268,  -93.4000015
     24,   217.468872,  -93.4000015
     25,   214.966476,  -93.4000015
     26,   212.464081,  -93.4000015
     27,   209.961685,  -93.4000015
     28,    207.45929,  -93.4000015
     29,   204.956894,  -93.4000015
     30,   202.454498,  -93.4000015
     31,   199.952103,  -93.4000015
     32,   197.449707,  -93.4000015
     33,   194.947311,  -93.4000015
     34,   192.444916,  -93.4000015
     35,    189.94252,  -93.4000015
     36,    187.44014,  -93.4000015
     37,   184.937744,  -93.4000015
     38,   182.435349,  -93.4000015
     39,   179.932953,  -93.4000015
     40,   177.430557,  -93.4000015
     41,   174.928162,  -93.4000015
     42,   172.425766,  -93.4000015
     43,    169.92337,  -93.4000015
     44,   167.420975,  -93.4000015
     45,   164.918579,  -93.4000015
     46,   162.416183,  -93.4000015
     47,   159.913788,  -93.4000015
     48,   157.411392,  -93.4000015
     49,   154.908997,  -93.4000015
     50,   152.406601,  -93.4000015
     51,   149.904205,  -93.4000015
     52,    147.40181,  -93.4000015
     53,   144.899429,  -93.4000015
     54,   142.397034,  -93.4000015
     55,   139.894638,  -93.4000015
     56,   137.392242,  -93.4000015
     57,   134.889847,  -93.4000015
     58,   132.387451,  -93.4000015
     59,   129.885056,  -93.4000015
     60,    127.38266,  -93.4000015
     61,   124.880264,  -93.4000015
     62,   122.377869,  -93.4000015
     63,   119.875473,  -93.4000015
     64,   114.912743,  -96.4108963
     65,   110.641441,  -101.284111
     66,    103.38131,  -108.684433
     67,   95.6273575,  -115.565598
     68,   87.4166336,   -121.89476
     69,    78.788353,   -127.64167
     70,   69.7837296,  -132.778885
     71,   60.4457741,   -137.28186
     72,   50.8190918,  -141.129089
     73,   40.9496613,    -144.3022
     74,    30.884634,  -146.786026
     75,    20.672081,  -148.568726
     76,   10.3607855,  -149.641754
     77,           0.,        -160.
     78,           0.,        -170.
     79,           0.,        -180.
     80,           0.,        -190.
     81,           0.,        -200.
     82,           0.,        -210.
     83,           0.,        -220.
     84,           0.,        -230.
     85,           0.,        -240.
     86,           0.,        -250.
     87,           0.,        -260.
     88,           0.,        -270.
     89,           0.,        -280.
     90,           0.,        -290.
     91,           0.,        -300.
     92,           0.,        -310.
     93,           0.,        -320.
     94,           0.,        -330.
     95,           0.,        -340.
     96,           0.,        -350.
     97,           0.,        -360.
     98,           0.,        -370.
     99,           0.,        -380.
    100,           0.,        -390.
    101,           0.,        -400.
    102,           0.,        -410.
    103,           0.,        -420.
    104,           0.,        -430.
    105,           0.,        -440.
    106,          10.,        -450.
    107,          20.,        -450.
    108,          30.,        -450.
    109,          40.,        -450.
    110,          50.,        -450.
    111,          60.,        -450.
    112,          70.,        -450.
    113,          80.,        -450.
    114,          90.,        -450.
    115,         100.,        -450.
    116,         110.,        -450.
    117,         120.,        -450.
    118,         130.,        -450.
    119,         140.,        -450.
    120,         150.,        -450.
    121,         160.,        -450.
    122,         170.,        -450.
    123,         180.,        -450.
    124,         190.,        -450.
    125,         200.,        -450.
    126,         210.,        -450.
    127,         220.,        -450.
    128,         230.,        -450.
    129,         240.,        -450.
    130,         250.,  -440.094452
    131,         250.,  -430.188904
    132,         250.,  -420.283325
    133,         250.,  -410.377777
    134,         250.,  -400.472229
    135,         250.,  -390.566681
    136,         250.,  -380.661102
    137,         250.,  -370.755554
    138,         250.,  -360.850006
    139,         250.,  -350.944458
    140,         250.,  -341.038879
    141,         250.,  -331.133331
    142,         250.,  -321.227783
    143,         250.,  -311.322235
    144,         250.,  -301.416656
    145,         250.,  -291.511108
    146,         250.,   -281.60556
    147,         250.,  -271.700012
    148,         250.,  -261.794434
    149,         250.,  -251.888885
    150,         250.,  -241.983337
    151,         250.,  -232.077774
    152,         250.,  -222.172226
    153,         250.,  -212.266663
    154,         250.,  -202.361115
    155,         250.,  -192.455551
    156,         250.,  -182.550003
    157,         250.,   -172.64444
    158,         250.,  -162.738892
    159,         250.,  -152.833328
    160,         250.,   -142.92778
    161,         250.,  -133.022217
    162,         250.,  -123.116669
    163,         250.,  -113.211113
    164,         250.,  -103.305557
    165,         250.,  -97.1145859
    166,   247.497604,   93.4000015
    167,   244.995209,   93.4000015
    168,   242.492813,   93.4000015
    169,   239.990417,   93.4000015
    170,   237.488022,   93.4000015
    171,   234.985626,   93.4000015
    172,   232.483231,   93.4000015
    173,   229.980835,   93.4000015
    174,   227.478455,   93.4000015
    175,   224.976059,   93.4000015
    176,   222.473663,   93.4000015
    177,   219.971268,   93.4000015
    178,   217.468872,   93.4000015
    179,   214.966476,   93.4000015
    180,   212.464081,   93.4000015
    181,   209.961685,   93.4000015
    182,    207.45929,   93.4000015
    183,   204.956894,   93.4000015
    184,   202.454498,   93.4000015
    185,   199.952103,   93.4000015
    186,   197.449707,   93.4000015
    187,   194.947311,   93.4000015
    188,   192.444916,   93.4000015
    189,    189.94252,   93.4000015
    190,    187.44014,   93.4000015
    191,   184.937744,   93.4000015
    192,   182.435349,   93.4000015
    193,   179.932953,   93.4000015
    194,   177.430557,   93.4000015
    195,   174.928162,   93.4000015
    196,   172.425766,   93.4000015
    197,    169.92337,   93.4000015
    198,   167.420975,   93.4000015
    199,   164.918579,   93.4000015
    200,   162.416183,   93.4000015
    201,   159.913788,   93.4000015
    202,   157.411392,   93.4000015
    203,   154.908997,   93.4000015
    204,   152.406601,   93.4000015
    205,   149.904205,   93.4000015
    206,    147.40181,   93.4000015
    207,   144.899429,   93.4000015
    208,   142.397034,   93.4000015
    209,   139.894638,   93.4000015
    210,   137.392242,   93.4000015
    211,   134.889847,   93.4000015
    212,   132.387451,   93.4000015
    213,   129.885056,   93.4000015
    214,    127.38266,   93.4000015
    215,   124.880264,   93.4000015
    216,   122.377869,   93.4000015
    217,   119.875473,   93.4000015
    218,   118.925896,   91.4146118
    219,   120.445137,   89.4034119
    220,   121.930367,   87.3669662
    221,   123.381165,   85.3058548
    222,   124.797127,   83.2206497
    223,   126.177856,   81.1119537
    224,   127.522957,   78.9803543
    225,   128.832047,   76.8264542
    226,   130.104767,   74.6508636
    227,   131.340744,   72.4541931
    228,   132.539642,   70.2370605
    229,   133.701111,   68.0000992
    230,   134.824829,   65.7439423
    231,   135.910477,   63.4692154
    232,   136.957764,   61.1765671
    233,    137.96637,   58.8666496
    234,    138.93602,   56.5401115
    235,    139.86644,   54.1976051
    236,    140.75737,    51.839798
    237,   141.608551,   49.4673538
    238,   142.419754,   47.0809402
    239,   143.190735,   44.6812325
    240,   143.921295,   42.2689133
    241,   144.611221,   39.8446541
    242,     145.2603,   37.4091492
    243,   145.868378,   34.9630775
    244,   146.435257,   32.5071373
    245,     146.9608,   30.0420151
    246,   147.444839,   27.5684128
    247,   147.887253,   25.0870266
    248,   148.287918,   22.5985546
    249,   148.646698,   20.1037045
    250,   148.963516,   17.6031761
    251,   149.238266,   15.0976772
    252,   149.470886,   12.5879164
    253,   149.661285,   10.0746012
    254,   149.809448,   7.55844069
    255,   149.915298,   5.04014635
    256,   149.978821,   2.52042913
    257,   149.978821,  -2.52042913
    258,   149.915298,  -5.04014635
    259,   149.809448,  -7.55844069
    260,   149.661285,  -10.0746012
    261,   149.470886,  -12.5879164
    262,   149.238266,  -15.0976772
    263,   148.963516,  -17.6031761
    264,   148.646698,  -20.1037045
    265,   148.287918,  -22.5985546
    266,   147.887253,  -25.0870266
    267,   147.444839,  -27.5684128
    268,     146.9608,  -30.0420151
    269,   146.435257,  -32.5071373
    270,   145.868378,  -34.9630775
    271,     145.2603,  -37.4091492
    272,   144.611221,  -39.8446541
    273,   143.921295,  -42.2689133
    274,   143.190735,  -44.6812325
    275,   142.419754,  -47.0809402
    276,   141.608551,  -49.4673538
    277,    140.75737,   -51.839798
    278,    139.86644,  -54.1976051
    279,    138.93602,  -56.5401115
    280,    137.96637,  -58.8666496
    281,   136.957764,  -61.1765671
    282,   135.910477,  -63.4692154
    283,   134.824829,  -65.7439423
    284,   133.701111,  -68.0000992
    285,   132.539642,  -70.2370605
    286,   131.340744,  -72.4541931
    287,   130.104767,  -74.6508636
    288,   128.832047,  -76.8264542
    289,   127.522957,  -78.9803543
    290,   126.177856,  -81.1119537
    291,   124.797127,  -83.2206497
    292,   123.381165,  -85.3058548
    293,   121.930367,  -87.3669662
    294,   120.445137,  -89.4034119
    295,   118.925896,  -91.4146118
    296,         250.,  -90.9093323
    297,         250.,   -88.418663
    298,         250.,  -85.9280014
    299,         250.,  -83.4373322
    300,         250.,  -80.9466629
    301,         250.,  -78.4560013
    302,         250.,   -75.965332
    303,         250.,  -73.4746704
    304,         250.,  -70.9840012
    305,         250.,  -68.4933319
    306,         250.,  -66.0026703
    307,         250.,   -63.512001
    308,         250.,  -61.0213318
    309,         250.,  -58.5306664
    310,         250.,  -56.0400009
    311,         250.,  -53.5493317
    312,         250.,  -51.0586662
    313,         250.,  -48.5680008
    314,         250.,  -46.0773315
    315,         250.,  -43.5866661
    316,         250.,  -41.0960007
    317,         250.,  -38.6053352
    318,         250.,   -36.114666
    319,         250.,  -33.6240005
    320,         250.,  -31.1333332
    321,         250.,  -28.6426659
    322,         250.,  -26.1520004
    323,         250.,  -23.6613331
    324,         250.,  -21.1706657
    325,         250.,  -18.6800003
    326,         250.,   -16.189333
    327,         250.,  -13.6986666
    328,         250.,  -11.2080002
    329,         250.,  -8.71733379
    330,         250.,  -6.22666645
    331,         250.,  -3.73600006
    332,         250.,  -1.24533331
    333,         250.,   1.24533331
    334,         250.,   3.73600006
    335,         250.,   6.22666645
    336,         250.,   8.71733379
    337,         250.,   11.2080002
    338,         250.,   13.6986666
    339,         250.,    16.189333
    340,         250.,   18.6800003
    341,         250.,   21.1706657
    342,         250.,   23.6613331
    343,         250.,   26.1520004
    344,         250.,   28.6426659
    345,         250.,   31.1333332
    346,         250.,   33.6240005
    347,         250.,    36.114666
    348,         250.,   38.6053352
    349,         250.,   41.0960007
    350,         250.,   43.5866661
    351,         250.,   46.0773315
    352,         250.,   48.5680008
    353,         250.,   51.0586662
    354,         250.,   53.5493317
    355,         250.,   56.0400009
    356,         250.,   58.5306664
    357,         250.,   61.0213318
    358,         250.,    63.512001
    359,         250.,   66.0026703
    360,         250.,   68.4933319
    361,         250.,   70.9840012
    362,         250.,   73.4746704
    363,         250.,    75.965332
    364,         250.,   78.4560013
    365,         250.,   80.9466629
    366,         250.,   83.4373322
    367,         250.,   85.9280014
    368,         250.,    88.418663
    369,         250.,   90.9093323
    370,         250.,   97.1145859
    371,         250.,   103.305557
    372,         250.,   113.211113
    373,         250.,   123.116669
    374,         250.,   133.022217
    375,         250.,    142.92778
    376,         250.,   152.833328
    377,         250.,   162.738892
    378,         250.,    172.64444
    379,         250.,   182.550003
    380,         250.,   192.455551
    381,         250.,   202.361115
    382,         250.,   212.266663
    383,         250.,   222.172226
    384,         250.,   232.077774
    385,         250.,   241.983337
    386,         250.,   251.888885
    387,         250.,   261.794434
    388,         250.,   271.700012
    389,         250.,    281.60556
    390,         250.,   291.511108
    391,         250.,   301.416656
    392,         250.,   311.322235
    393,         250.,   321.227783
    394,         250.,   331.133331
    395,         250.,   341.038879
    396,         250.,   350.944458
    397,         250.,   360.850006
    398,         250.,   370.755554
    399,         250.,   380.661102
    400,         250.,   390.566681
    401,         250.,   400.472229
    402,         250.,   410.377777
    403,         250.,   420.283325
    404,         250.,   430.188904
    405,         250.,   440.094452
    406,         240.,         450.
    407,         230.,         450.
    408,         220.,         450.
    409,         210.,         450.
    410,         200.,         450.
    411,         190.,         450.
    412,         180.,         450.
    413,         170.,         450.
    414,         160.,         450.
    415,         150.,         450.
    416,         140.,         450.
    417,         130.,         450.
    418,         120.,         450.
    419,         110.,         450.
    420,         100.,         450.
    421,          90.,         450.
    422,          80.,         450.
    423,          70.,         450.
    424,          60.,         450.
    425,          50.,         450.
    426,          40.,         450.
    427,          30.,         450.
    428,          20.,         450.
    429,          10.,         450.
    430,           0.,         440.
    431,           0.,         430.
    432,           0.,         420.
    433,           0.,         410.
    434,           0.,         400.
    435,           0.,         390.
    436,           0.,         380.
    437,           0.,         370.
    438,           0.,         360.
    439,           0.,         350.
    440,           0.,         340.
    441,           0.,         330.
    442,           0.,         320.
    443,           0.,         310.
    444,           0.,         300.
    445,           0.,         290.
    446,           0.,         280.
    447,           0.,         270.
    448,           0.,         260.
    449,           0.,         250.
    450,           0.,         240.
    451,           0.,         230.
    452,           0.,         220.
    453,           0.,         210.
    454,           0.,         200.
    455,           0.,         190.
    456,           0.,         180.
    457,           0.,         170.
    458,           0.,         160.
    459,   10.3607855,   149.641754
    460,    20.672081,   148.568726
    461,    30.884634,   146.786026
    462,   40.9496613,     144.3022
    463,   50.8190918,   141.129089
    464,   60.4457741,    137.28186
    465,   69.7837296,   132.778885
    466,    78.788353,    127.64167
    467,   87.4166336,    121.89476
    468,   95.6273575,   115.565598
    469,    103.38131,   108.684433
    470,   110.641441,   101.284111
    471,   114.912743,   96.4108963
    472,   125.999443,  -108.937485
    473,   141.388763,  -111.124672
    474,   171.403839,  -111.454453
    475,    186.36351,  -111.211815
    476,      204.903,  -108.917892
    477,   218.545792,  -111.268143
    478,   232.406387,  -110.272881
    479,    108.77166,  -126.312843
    480,   124.898247,  -128.909088
    481,   140.820663,  -123.610527
    482,   156.098877,  -127.943634
    483,   171.646484,  -129.604813
    484,   189.321106,  -128.072556
    485,   202.472672,  -127.361549
    486,   219.442245,  -128.210175
    487,   238.441315,    -125.4347
    488,   74.8970642,  -140.863327
    489,   106.563858,  -141.632751
    490,   121.626251,  -140.918808
    491,   138.029007,  -143.445648
    492,   156.108093,   -146.06366
    493,   171.240463,   -144.49292
    494,   185.483261,   -140.74202
    495,   201.165894,  -143.827789
    496,   219.056122,  -141.652725
    497,   235.041595,  -141.198105
    498,   32.4906197,  -158.372437
    499,   45.6284332,  -158.131058
    500,   63.4135666,  -159.456635
    501,   77.3761063,  -161.504303
    502,   89.7393723,  -164.584534
    503,   104.174606,  -158.634186
    504,   119.555351,  -155.295303
    505,   139.257614,  -159.824493
    506,   156.976303,  -157.803421
    507,   172.948502,  -156.331726
    508,   187.873901,  -158.390564
    509,   200.995804,    -160.0289
    510,   220.085449,  -160.435532
    511,   230.783386,  -160.182831
    512,   21.0476418,   -169.23938
    513,   31.7339439,  -169.288162
    514,   42.2705078,  -170.649567
    515,    65.108139,  -172.552643
    516,   88.7824173,  -175.523788
    517,    104.54155,  -174.767883
    518,   126.457367,  -174.822662
    519,   133.283478,  -173.986877
    520,   156.515289,  -170.691681
    521,   174.313721,  -171.077194
    522,   187.468048,  -175.048126
    523,   201.028687,  -173.858612
    524,   215.282532,  -173.646851
    525,   234.185394,  -175.388763
    526,    29.992239,  -188.340118
    527,   38.2118301,  -189.936874
    528,    57.527153,  -187.246155
    529,   75.7454147,  -188.008347
    530,   91.2969208,  -185.028503
    531,   105.424438,  -190.347977
    532,   119.937599,  -190.163193
    533,   134.782898,  -185.641586
    534,   158.905472,  -186.269409
    535,   172.117859,  -186.386597
    536,   186.492325,  -187.481522
    537,   202.233627,  -187.740143
    538,    217.94899,  -186.405136
    539,   18.0724144,  -198.568634
    540,   27.1254902,  -203.085876
    541,   44.4874382,   -200.53627
    542,   60.9177818,  -205.769089
    543,   71.5124512,  -201.627045
    544,   91.7163696,  -199.773483
    545,   105.246628,    -201.1008
    546,   121.889053,  -202.807449
    547,   135.701569,   -200.52655
    548,   153.977097,  -199.470734
    549,    170.45076,  -201.484192
    550,   186.283539,  -202.205536
    551,   202.389343,  -202.995407
    552,    218.60495,  -203.075012
    553,   234.614471,  -202.734375
    554,   23.0202827,  -213.830765
    555,   29.7568111,  -209.118149
    556,   56.2221909,  -220.154236
    557,   74.6550064,  -219.554047
    558,   92.8065872,  -219.271927
    559,   110.073471,  -213.491104
    560,   127.026527,  -210.157562
    561,   152.372742,  -216.786316
    562,   170.036224,  -215.567383
    563,   185.473679,  -217.422058
    564,   201.635635,  -219.196823
    565,   218.035721,  -220.635483
    566,   234.265289,  -221.624161
    567,   20.9703751,  -234.065414
    568,   34.9779091,  -232.543808
    569,   45.0330467,   -232.45047
    570,   58.7679291,  -233.741196
    571,    67.610939,  -233.337341
    572,   87.2863693,  -230.503372
    573,   106.421715,  -228.456711
    574,   125.429924,  -230.671783
    575,   154.734375,  -226.553772
    576,   167.897934,  -229.263489
    577,   183.337921,  -232.236099
    578,   199.608826,  -235.523071
    579,   216.453262,  -238.449417
    580,   46.9380264,  -248.947495
    581,   57.8018761,  -246.767883
    582,   75.2507629,  -249.359283
    583,   92.0184555,  -245.301056
    584,   104.423279,  -247.046707
    585,   123.675369,  -248.064301
    586,   140.565262,  -242.084518
    587,   152.453781,  -238.579575
    588,    164.90239,   -242.53624
    589,   179.686096,  -246.412216
    590,   232.712631,  -250.125549
    591,   18.1680088,  -261.399475
    592,   36.3842773,  -262.725494
    593,   44.1897202,  -261.794312
    594,   60.8372688,  -267.602051
    595,    78.558548,  -269.753113
    596,   93.5001144,  -261.501495
    597,   111.718018,  -265.179138
    598,    121.05899,  -261.663055
    599,   142.791183,  -256.251678
    600,   157.052734,  -262.837738
    601,   174.945236,   -260.21283
    602,   182.236099,  -261.636566
    603,   202.174362,  -262.997772
    604,   212.415512,  -264.422913
    605,   34.6439629,  -282.254852
    606,   45.1919174,  -277.182678
    607,   59.1614189,  -284.380096
    608,   80.6412354,  -279.590881
    609,   91.0260315,  -277.431793
    610,   126.543503,  -278.848938
    611,   139.532043,  -281.404846
    612,    152.87616,  -282.390198
    613,   172.939163,  -279.236694
    614,   184.066055,  -279.998291
    615,   195.446793,  -280.110413
    616,   207.171021,  -279.356323
    617,   228.609146,  -279.392517
    618,   16.7737885,   -290.04599
    619,   33.0524216,  -291.071014
    620,   47.6475792,  -293.474976
    621,   64.3048248,   -298.31781
    622,   80.6251373,  -295.096161
    623,    93.480629,  -299.399445
    624,   108.103577,  -300.800842
    625,   123.881027,  -300.261932
    626,   140.469193,  -300.668243
    627,   160.383911,  -300.802826
    628,   171.556702,  -299.555328
    629,   182.634903,  -300.763123
    630,   194.360733,  -302.487823
    631,   215.071793,  -298.244629
    632,   16.7484493,  -309.322876
    633,    32.846302,  -307.829559
    634,    40.349308,  -306.360565
    635,    61.153698,  -315.517212
    636,   79.3907394,  -310.605164
    637,   96.4659882,  -314.213226
    638,   110.902115,  -318.490814
    639,   127.044678,   -315.45816
    640,   143.878754,  -315.942169
    641,   157.516953,  -314.939972
    642,   165.519257,  -317.046265
    643,   184.055161,  -317.696808
    644,   199.321152,  -309.279663
    645,   213.407867,  -317.208557
    646,   230.615219,  -313.161072
    647,   27.2694607,  -327.716675
    648,   45.1668663,  -321.889587
    649,     65.49189,   -327.89801
    650,   79.3051987,  -327.972473
    651,   94.3366928,   -328.74469
    652,   107.937614,  -328.096924
    653,   123.681526,  -327.447632
    654,   143.540421,  -331.764771
    655,   158.975891,   -329.88681
    656,   171.591644,   -330.51651
    657,   197.820709,  -328.715973
    658,    215.38382,  -334.690979
    659,   232.433975,  -332.602997
    660,   18.3652153,  -337.827209
    661,   36.5027046,  -346.387726
    662,   48.0095901,   -344.86264
    663,     61.28722,  -349.591797
    664,   78.4318771,  -343.348145
    665,   94.1695099,  -345.026367
    666,   120.239899,  -339.937439
    667,   138.186249,  -345.549713
    668,   154.775406,  -343.572357
    669,   175.806137,  -346.680054
    670,   191.793198,  -346.467621
    671,   207.856201,  -344.772552
    672,   23.0357018,  -349.633484
    673,   30.8799477,  -354.620789
    674,   58.0823517,  -365.073822
    675,   66.7176056,  -363.488068
    676,   73.9619293,  -359.922607
    677,   85.9714661,  -364.306824
    678,   100.310646,  -363.872192
    679,    119.60434,  -359.798584
    680,   142.196457,  -356.527802
    681,   163.450943,  -352.171631
    682,    177.77829,  -363.009338
    683,   191.977798,  -362.878082
    684,   208.103851,  -362.956177
    685,   224.806717,   -362.74881
    686,   233.407196,  -362.013306
    687,   23.1241474,  -372.699127
    688,   33.2307854,  -375.382233
    689,   46.3513756,  -371.059479
    690,   58.3857384,  -376.664642
    691,   73.9091568,  -376.501587
    692,    88.231369,  -377.031982
    693,   99.8266907,  -377.877838
    694,   118.383904,  -371.575928
    695,   140.723038,  -374.861908
    696,   160.466415,  -374.794006
    697,   207.808701,  -372.295013
    698,   30.5868149,  -393.036652
    699,   51.0653381,  -390.941742
    700,   59.8508644,  -388.933533
    701,   68.7481766,   -389.19696
    702,   85.7579727,  -387.734131
    703,   105.941521,  -384.810486
    704,   128.715958,  -385.272705
    705,   141.851639,  -389.698395
    706,   161.276855,  -386.787811
    707,   172.041534,  -384.580322
    708,   188.337997,  -393.094574
    709,   207.412399,  -390.820435
    710,   221.956711,  -393.016235
    711,   236.302505,  -389.155853
    712,   19.8353672,  -401.410492
    713,   29.4023113,  -402.415955
    714,   41.3374672,  -394.315369
    715,     53.08004,   -398.93396
    716,   69.4002075,  -397.129456
    717,   89.4954987,  -405.486145
    718,   107.356857,  -407.084991
    719,   126.169228,  -403.062897
    720,   141.344666,  -395.587189
    721,   161.906799,  -399.569153
    722,   174.118027,  -396.880768
    723,   188.247345,  -413.748627
    724,   208.859482,  -410.352173
    725,   217.231445,  -405.518005
    726,   234.113678,  -406.149109
    727,   19.3619041,  -420.904785
    728,   28.9513931,  -421.309113
    729,   38.4919777,  -421.447266
    730,   59.1638756,   -418.64682
    731,   72.6180649,  -413.289764
    732,   106.326027,  -416.345734
    733,   124.387001,  -411.201355
    734,   139.058273,  -412.585999
    735,   160.984818,  -416.027374
    736,   175.181885,   -409.92514
    737,   188.791748,  -421.992371
    738,   203.092072,  -418.798767
    739,   210.429871,  -418.163086
    740,    228.48468,  -421.451111
    741,   9.71802521,  -430.326294
    742,   19.4778271,   -430.60849
    743,   39.1485558,  -430.749664
    744,   59.3507423,  -430.055634
    745,   88.7376404,   -432.37619
    746,   103.915489,  -431.758331
    747,   121.795967,  -429.372467
    748,   140.657806,  -430.165131
    749,   170.208069,  -429.742157
    750,   199.857849,  -430.472076
    751,   227.782867,  -432.758667
    752,   167.320251,  -95.8357239
    753,   217.495773,  -96.0616455
    754,   132.129257,  -96.2915573
    755,   139.834991,  -96.1207581
    756,   147.339325,  -95.9325562
    757,   154.837021,  -95.8489151
    758,   159.820084,  -95.8437653
    759,   172.332077,  -95.8326874
    760,   179.851273,  -95.8465805
    761,   187.366791,   -95.878418
    762,   194.878601,  -95.9340134
    763,   197.380844,  -95.9503479
    764,   204.908646,  -96.0024109
    765,   207.434494,  -96.0248566
    766,     214.9953,  -96.0589828
    767,   225.106979,  -96.1962662
    768,   227.690796,  -96.2355499
    769,   235.145294,  -95.6393814
    770,   237.373688,  -95.4328537
    771,   244.070023,  -96.8786163
    772,   122.406212,  -95.8857727
    773,   124.823158,   -95.490097
    774,   127.173424,  -95.7331238
    775,   134.733521,  -96.2614059
    776,   149.844055,  -95.8889694
    777,   182.356293,  -95.8550339
    778,   199.884369,  -95.9668274
    779,   232.733032,  -95.9813766
    780,   129.571579,  -96.1707764
    781,   137.304504,  -96.1931229
    782,   142.340286,  -96.0552597
    783,    144.83847,  -95.9932404
    784,   152.344376,  -95.8621368
    785,   157.326828,  -95.8471222
    786,   162.316284,   -95.843277
    787,   164.816437,  -95.8405914
    788,   169.825333,  -95.8345718
    789,   174.838074,  -95.8370438
    790,   177.344803,  -95.8424149
    791,   184.861389,  -95.8666763
    792,   189.871582,   -95.898407
    793,   192.375702,  -95.9185867
    794,    202.39212,  -95.9844894
    795,   209.963776,  -96.0445023
    796,    212.48584,  -96.0564041
    797,   220.007904,  -96.0821686
    798,   222.541489,  -96.1302872
    799,   230.244812,  -96.1817551
    800,   239.624268,  -95.4912262
    801,   241.774582,  -96.0910263
    802,   245.208099,  -101.943962
    803,   118.093781,  -102.500542
    804,     137.2901,  -98.9507523
    805,   164.715439,  -98.2931137
    806,   152.296097,    -98.32901
    807,   159.722885,  -98.3149948
    808,   222.548904,  -98.7926102
    809,   177.253937,   -98.290123
    810,   192.292328,  -98.4522629
    811,   202.318039,  -98.5678787
    812,   235.672333,  -97.9348526
    813,   124.862106,  -97.1289291
    814,   131.900375,  -99.2110291
    815,   147.318161,  -98.4695358
    816,   197.303848,  -98.5205002
    817,   172.235214,  -98.2728958
    818,    187.27977,  -98.3692856
    819,   207.398331,  -98.6374283
    820,   212.511337,  -98.7150269
    821,   217.525772,   -98.721405
    822,   227.888123,  -99.0868683
    823,    239.11528,  -97.2227097
    824,   184.775131,   -98.341362
    825,    194.79985,  -98.4952164
    826,   215.035812,  -98.7321625
    827,   225.170044,  -98.9451981
    828,   134.654358,  -99.0816422
    829,    142.33548,   -98.729126
    830,   149.813965,  -98.3757019
    831,   174.742661,  -98.2832184
    832,   182.269852,  -98.3201904
    833,   189.785446,  -98.4139328
    834,   199.808945,   -98.549881
    835,   220.023254,  -98.7249298
    836,   169.727432,  -98.2748337
    837,   144.827286,  -98.6029129
    838,   157.238937,  -98.3215103
    839,   204.848404,  -98.6022186
    840,   209.962021,  -98.6843262
    841,   128.860641,  -99.2952271
    842,   126.490608,  -97.9171219
    843,   179.763168,  -98.3063583
    844,   230.617249,   -99.088295
    845,   139.833557,  -98.8460312
    846,   154.764664,  -98.3236313
    847,   162.215042,  -98.3095093
    848,   167.219727,  -98.2841263
    849,    119.50029,  -96.5142746
    850,   114.931816,  -108.535767
    851,    169.62854,  -100.729317
    852,   172.132217,  -100.732643
    853,   142.381668,  -101.466766
    854,   174.639954,  -100.744186
    855,   187.176056,  -100.884293
    856,   220.052399,   -101.32505
    857,   217.597641,  -101.419754
    858,   139.875259,  -101.613724
    859,   189.680038,  -100.952286
    860,   167.122665,  -100.745033
    861,   154.677429,  -100.834671
    862,   157.141235,  -100.843964
    863,   164.618088,  -100.772217
    864,   159.622192,   -100.83065
    865,    162.11618,  -100.807304
    866,   184.676773,  -100.838425
    867,   177.155807,  -100.758621
    868,   202.243698,  -101.173515
    869,   182.175537,  -100.803001
    870,   179.669144,  -100.780777
    871,    192.19133,  -101.023071
    872,   197.225128,  -101.134193
    873,   199.735001,  -101.167488
    874,   215.104141,  -101.452126
    875,   204.777893,   -101.19503
    876,   194.710663,  -101.093002
    877,   144.884033,  -101.248016
    878,   152.243805,  -100.816269
    879,   212.543488,  -101.402992
    880,   209.951782,  -101.318977
    881,   207.352127,  -101.243248
    882,   149.816879,  -100.834541
    883,   147.352921,  -101.008217
    884,   222.477631,  -101.373024
    885,   227.951859,  -101.956688
    886,   234.176651,  -101.622162
    887,   137.347534,  -101.694221
    888,   225.088882,  -101.616798
    889,   134.705261,  -101.861115
    890,   131.974106,  -102.096756
    891,   129.173813,  -102.418053
    892,     123.4534,  -101.818314
    893,   126.648399,  -100.588493
    894,   123.237976,  -98.1289444
    895,    240.22287,   -98.484993
    896,   139.890228,  -104.548172
    897,   137.430786,  -104.385361
    898,   222.304474,   -103.86097
    899,    129.22821,  -105.325912
    900,   224.780563,   -104.15786
    901,   154.550125,  -103.433777
    902,   152.120468,   -103.36441
    903,   207.289612,  -103.798782
    904,   192.065765,  -103.629875
    905,   204.718536,  -103.786995
    906,    194.60434,  -103.736053
    907,   177.053818,  -103.246185
    908,   179.570847,  -103.272568
    909,   167.028992,  -103.230904
    910,   164.531464,  -103.278114
    911,   174.526901,  -103.234993
    912,   189.551224,  -103.532013
    913,   172.020996,  -103.221535
    914,   169.524612,   -103.21833
    915,   162.029648,  -103.339531
    916,   182.070023,  -103.311356
    917,   159.528015,  -103.396591
    918,   157.035553,  -103.437881
    919,   220.215103,  -103.902328
    920,   199.676071,  -103.846779
    921,   142.495514,  -104.334534
    922,   212.550034,  -104.118423
    923,   209.914215,  -103.934784
    924,   149.842133,  -103.191925
    925,   187.052246,  -103.439369
    926,   184.562668,  -103.369133
    927,   197.149063,  -103.821381
    928,   202.191772,  -103.832756
    929,   132.173737,  -104.915581
    930,   215.202942,  -104.279236
    931,   217.792175,  -104.256737
    932,   147.500732,    -103.5112
    933,   145.076553,  -103.963379
    934,   227.604584,  -104.644012
    935,   237.384079,   -99.976799
    936,   239.110748,  -103.024254
    937,   241.241501,   -106.10405
    938,   122.066345,  -104.838768
    939,   139.512711,   -108.18766
    940,    135.21698,  -107.409874
    941,   226.686996,  -106.553093
    942,   224.385666,  -106.625618
    943,   142.786697,  -107.200203
    944,   154.421219,  -106.090805
    945,   151.599411,  -106.242966
    946,   207.227234,  -106.280434
    947,   209.799683,  -106.475288
    948,   194.469284,   -106.43557
    949,   191.905594,  -106.301971
    950,   156.936737,  -106.105164
    951,   179.472092,   -105.80262
    952,   176.953201,  -105.773659
    953,   161.968399,  -105.928535
    954,   159.453796,  -106.025543
    955,   181.954666,  -105.859032
    956,    227.83815,  -108.420097
    957,   197.061493,   -106.58461
    958,   166.942139,  -105.758499
    959,   164.465347,  -105.824898
    960,   169.417099,  -105.722984
    961,   171.892838,  -105.753723
    962,   174.397812,  -105.768982
    963,   204.721573,  -106.373466
    964,   184.432022,  -105.920624
    965,   199.654892,  -106.661438
    966,   189.387192,  -106.162392
    967,   202.208054,  -106.567787
    968,   186.896744,  -106.027748
    969,   221.311859,  -106.474617
    970,   145.528351,  -106.788956
    971,   212.447464,  -106.846199
    972,   218.190857,  -107.307861
    973,   149.815811,     -105.153
    974,    215.26326,  -107.240791
    975,   147.966217,  -106.010422
    976,   235.263321,  -105.001045
    977,   125.915993,  -105.525116
    978,   132.562592,  -107.601662
    979,   236.663651,  -108.675064
    980,     121.3741,  -109.165001
    981,   224.807938,  -109.171219
    982,   143.405258,  -109.457512
    983,   152.319168,  -108.392021
    984,   154.350296,  -108.775139
    985,   207.200485,  -108.596992
    986,   191.696915,  -109.035446
    987,    156.85289,  -108.977608
    988,    189.16507,  -108.853874
    989,   176.862854,  -108.301743
    990,   194.287689,  -109.184807
    991,   150.909653,  -110.205803
    992,   174.262115,  -108.314026
    993,   179.367416,  -108.402672
    994,    209.53891,  -108.896805
    995,   159.429855,  -108.679008
    996,   161.956116,  -108.639053
    997,   166.869629,  -108.383293
    998,   169.304062,  -108.222885
    999,   164.439346,  -108.369545
   1000,   181.838943,  -108.487099
   1001,   196.904694,  -109.438904
   1002,   199.681259,    -109.7145
   1003,   184.303101,  -108.509857
   1004,   146.213821,  -110.159561
   1005,   212.061737,  -109.503029
   1006,   237.921219,  -112.794571
   1007,   129.586227,  -108.276169
   1008,   230.995743,  -106.191628
   1009,   214.957672,  -110.356895
   1010,   243.295197,  -109.640976
   1011,   127.307617,  -112.761536
   1012,    118.18811,  -116.293121
   1013,   208.938278,  -111.278931
   1014,   194.094131,  -111.899658
   1015,    176.75882,   -110.79129
   1016,   179.198059,  -111.103973
   1017,   159.530807,  -110.987816
   1018,   196.462585,  -112.208229
   1019,   164.485672,  -110.567032
   1020,    181.75209,   -111.27977
   1021,    169.22493,  -110.391182
   1022,   166.839233,  -111.565796
   1023,   184.257874,   -111.12307
   1024,   148.953339,  -112.583801
   1025,    211.24649,  -111.964966
   1026,   191.468765,  -111.913704
   1027,   203.074005,  -112.478172
   1028,   133.025589,  -109.849274
   1029,      216.612,  -115.066536
   1030,   153.561874,  -111.619873
   1031,   228.690048,  -111.443954
   1032,   233.155243,  -114.496841
   1033,   143.991821,   -113.21682
   1034,   221.821426,  -109.681084
   1035,   244.288345,  -116.241241
   1036,    130.76532,  -111.282944
   1037,   225.341919,  -111.918411
   1038,   123.039284,  -114.308243
   1039,   113.206055,  -120.332375
   1040,    199.67421,  -113.358734
   1041,   174.533127,  -112.539978
   1042,   211.800613,  -115.755959
   1043,    178.76059,  -113.993568
   1044,   164.588867,  -114.049927
   1045,    185.10379,  -113.831741
   1046,   221.483536,  -113.925552
   1047,   171.729385,  -108.390335
   1048,   169.079269,  -113.812286
   1049,   222.824005,  -111.857811
   1050,   207.255157,  -110.482887
   1051,   194.661331,    -114.8218
   1052,   186.687592,  -108.636299
   1053,   207.633881,  -113.995262
   1054,    188.31752,  -114.343399
   1055,   213.778397,  -113.298279
   1056,   151.951172,  -114.526871
   1057,   133.044785,  -113.841293
   1058,   228.868881,  -115.222954
   1059,   138.664749,  -113.517159
   1060,   156.963455,  -112.554855
   1061,   173.063766,  -113.821632
   1062,   197.518616,  -115.539452
   1063,   146.863022,  -115.302559
   1064,   126.200279,  -118.774475
   1065,   115.753906,  -129.787811
   1066,   171.359497,  -115.853859
   1067,   177.496185,   -117.36895
   1068,   166.935852,  -116.110733
   1069,   214.238586,   -118.29361
   1070,   210.281311,  -113.912018
   1071,   198.220749,  -118.248489
   1072,   191.242523,  -114.973053
   1073,    223.80043,  -118.907669
   1074,   159.904602,  -114.555367
   1075,   135.938293,  -110.783112
   1076,   194.469635,   -118.59671
   1077,   169.472931,  -118.249115
   1078,   149.934464,  -117.473045
   1079,   175.225739,  -115.367706
   1080,   155.058731,  -116.133698
   1081,    185.12468,   -117.39016
   1082,   201.391785,  -116.774261
   1083,   144.642227,  -118.093971
   1084,   233.300171,  -119.579689
   1085,    133.10849,  -119.443565
   1086,   130.105408,  -123.233536
   1087,   169.305038,  -122.189827
   1088,   194.780167,  -122.022339
   1089,   209.179245,  -117.260521
   1090,   158.167358,  -117.399094
   1091,   137.358978,  -106.712708
   1092,   167.054184,  -120.518509
   1093,    135.92067,  -116.381973
   1094,   181.542892,  -117.743179
   1095,   219.818954,  -117.251122
   1096,     162.4944,  -116.362167
   1097,   199.425964,  -122.096001
   1098,   190.237686,  -118.852074
   1099,   147.588791,  -120.190636
   1100,   137.022736,  -121.736824
   1101,   153.229965,  -120.134201
   1102,   228.356125,  -119.710915
   1103,   238.631638,  -118.472115
   1104,   129.791626,  -132.446426
   1105,    113.89814,  -135.305725
   1106,    168.49791,  -124.952965
   1107,   186.019745,  -120.731773
   1108,   221.922791,  -123.394356
   1109,   181.722107,  -121.598534
   1110,   217.446594,  -121.160759
   1111,    206.10675,   -118.43689
   1112,   164.602371,  -118.543762
   1113,   191.306885,  -122.585335
   1114,   160.708145,  -118.307404
   1115,   211.211838,  -120.629288
   1116,   207.554749,  -121.627106
   1117,   149.943649,  -121.984665
   1118,   157.349472,  -120.482178
   1119,   142.576477,  -120.947357
   1120,   198.448288,   -125.88092
   1121,   172.447769,  -125.370995
   1122,   244.366226,  -124.521042
   1123,   135.499496,  -124.968552
   1124,   122.090805,   -133.07782
   1125,   187.242722,  -124.366188
   1126,   176.903824,  -125.524925
   1127,   164.831528,   -123.44136
   1128,   161.458374,    -121.2183
   1129,   176.293747,   -129.59137
   1130,   167.047363,  -128.604141
   1131,   145.702438,  -123.116646
   1132,   149.168823,   -125.83181
   1133,   193.753387,  -125.792068
   1134,   182.229767,  -126.152611
   1135,     135.7211,  -133.042236
   1136,   227.098404,  -124.865265
   1137,   207.920547,  -125.251656
   1138,   198.118713,  -128.749588
   1139,    213.67067,  -125.385658
   1140,   128.271957,  -138.031342
   1141,   243.633774,  -133.517975
   1142,   162.770142,  -126.892517
   1143,   176.700439,  -133.851257
   1144,   170.771774,  -134.737015
   1145,   180.031082,  -129.490845
   1146,   156.931107,  -123.219185
   1147,    195.25972,  -130.054245
   1148,   200.831863,  -130.655838
   1149,   225.121078,  -130.407822
   1150,   211.669022,   -130.85141
   1151,   191.591309,  -132.105377
   1152,   151.053391,  -131.639343
   1153,   131.354004,  -145.241364
   1154,   206.822556,  -129.090683
   1155,   142.499619,  -131.738358
   1156,   194.306366,  -136.128525
   1157,   160.225616,    -130.5952
   1158,   172.934219,  -140.457214
   1159,   185.240295,  -130.269501
   1160,   165.155075,  -132.495682
   1161,   157.409286,  -134.792953
   1162,   208.880737,  -135.581497
   1163,   187.577011,  -134.333008
   1164,   201.388809,  -136.657822
   1165,   232.620651,  -125.569145
   1166,   143.099167,  -136.902313
   1167,   216.865158,   -133.35907
   1168,   124.261459,  -147.089478
   1169,   136.238052,  -137.828201
   1170,   181.422134,  -132.511551
   1171,   167.058014,  -137.545807
   1172,   149.768372,  -137.066391
   1173,   162.889603,  -136.411118
   1174,   197.489868,  -140.043793
   1175,   228.467407,  -138.746307
   1176,   143.871582,  -141.773895
   1177,   213.711487,  -138.482986
   1178,   178.334717,  -138.182022
   1179,   190.095001,  -138.642441
   1180,   155.305054,   -139.97554
   1181,   183.237503,  -136.414001
   1182,   209.907303,  -143.264023
   1183,   141.986099,  -149.744278
   1184,   161.865005,  -140.855408
   1185,    149.72258,  -141.426407
   1186,   192.944824,  -143.187103
   1187,   210.361176,  -151.749496
   1188,   145.188629,  -145.889038
   1189,    134.83075,   -152.10936
   1190,   187.854965,   -145.79834
   1191,   200.781448,  -151.822433
   1192,   156.609909,  -151.862473
   1193,   149.869797,  -151.397369
   1194,   196.277817,  -147.703949
   1195,   182.570267,  -147.036423
   1196,   205.584671,  -156.169006
   1197,   210.178375,  -160.887283
   1198,   190.194885,  -152.058395
   1199,   180.705841,  -142.462372
   1200,   215.330215,  -156.052277
   1201,   178.669098,  -147.480286
   1202,   182.634476,  -152.163696
   1203,   214.969162,  -146.931793
   1204,    204.93187,  -165.207138
   1205,   176.532578,  -144.462494
   1206,   220.373978,  -150.850922
   1207,   176.904892,  -150.974701
   1208,   196.841522,  -163.168594
   1209,   181.102509,  -157.724121
   1210,   169.154495,  -150.315536
   1211,   173.429871,  -147.634857
   1212,   224.915573,  -145.094254
   1213,   186.942734,  -163.919479
   1214,   196.286743,  -155.955841
   1215,   167.405991,  -145.304428
   1216,     164.5457,  -157.787888
   1217,   180.416046,  -163.662766
   1218,    225.87561,  -155.152161
   1219,   193.312149,  -160.158707
   1220,   193.179886,  -169.254837
   1221,   162.080368,  -145.928864
   1222,   163.162903,  -151.651016
   1223,   173.120819,  -163.879578
   1224,   193.999161,    -174.9366
   1225,   167.325745,  -141.016281
   1226,   165.256287,  -164.680328
   1227,   156.973801,  -164.109863
   1228,   186.783447,  -180.830566
   1229,   199.144943,  -168.025894
   1230,   148.666824,  -162.643768
   1231,   194.330383,  -181.121628
   1232,   178.362595,  -178.795074
   1233,   127.327385,  -153.920334
   1234,   116.699875,  -148.367126
   1235,   106.016373,  -133.588211
   1236,   165.911636,  -173.154861
   1237,   224.402924,   -164.96846
   1238,   214.678207,  -165.553146
   1239,    114.49826,  -141.598267
   1240,   231.427597,  -148.914017
   1241,   208.963257,  -171.644348
   1242,   240.439926,  -418.233002
   1243,   242.289261,  -370.940552
   1244,   242.412567,  -202.555511
   1245,   240.840225,  -260.939453
   1246,   242.127167,  -142.996567
   1247,   239.390503,  -153.908356
   1248,   242.206451,  -173.876312
   1249,   242.020264,   -231.68428
   1250,   239.299545,  -439.940979
   1251,   241.969162,  -408.716278
   1252,   243.140884,  -389.846069
   1253,   242.884933,  -380.418701
   1254,   241.862839,  -361.283661
   1255,   241.418381,  -341.602692
   1256,   241.154373,  -331.755798
   1257,   240.041367,  -311.894043
   1258,   239.086487,  -301.694489
   1259,   238.339996,  -291.346832
   1260,   240.070404,  -270.828644
   1261,   241.748505,  -241.425064
   1262,   234.505386,  -212.163879
   1263,   242.378128,  -183.309906
   1264,   237.562805,  -428.669861
   1265,   242.827591,  -399.304932
   1266,   241.615372,  -351.459259
   1267,   231.747253,  -322.928314
   1268,   239.070343,  -281.003448
   1269,   241.371429,  -251.168671
   1270,   242.211151,  -221.951813
   1271,   242.420181,  -192.890793
   1272,   241.584244,  -164.403824
   1273,   59.6399078,  -440.216461
   1274,   79.5256424,  -440.893677
   1275,   10.5586071,  -159.545013
   1276,   10.2878056,  -179.638535
   1277,   9.94874668,  -189.606003
   1278,   10.6495466,  -209.109711
   1279,   13.7395182,  -220.191071
   1280,   9.91393661,  -241.080933
   1281,   9.33602428,  -250.828873
   1282,   8.76520157,  -270.346893
   1283,   8.55100822,  -280.120605
   1284,   16.5590324,  -299.699402
   1285,   8.38276768,  -309.723785
   1286,    8.8583231,  -329.359009
   1287,   9.11211109,  -338.875336
   1288,   14.1312666,  -358.817474
   1289,   12.1443462,  -370.450409
   1290,   10.3919325,  -390.682312
   1291,   9.99936104,  -400.590973
   1292,    49.680027,  -440.224548
   1293,   9.68800068,  -420.444305
   1294,   29.6468487,  -440.361969
   1295,   19.7166271,  -440.306915
   1296,   89.2694168,  -441.101898
   1297,   109.538734,  -438.083221
   1298,   140.412766,  -439.999695
   1299,   160.205734,  -439.770294
   1300,   169.950943,  -440.016632
   1301,   189.786423,  -440.509338
   1302,   199.697922,    -440.6362
   1303,   219.414902,  -441.585266
   1304,   10.5012798,  -169.562317
   1305,   9.58764267,   -199.21077
   1306,   11.1431961,  -231.117645
   1307,    9.0005579,  -260.595062
   1308,   8.36585236,  -289.964905
   1309,    8.6011076,  -319.587189
   1310,   10.0266848,  -348.463837
   1311,   11.0357828,  -380.727753
   1312,   9.76741886,  -410.530029
   1313,   39.6337433,  -440.324799
   1314,   69.6047897,  -440.505005
   1315,    98.907959,   -440.72644
   1316,   131.079376,  -430.218414
   1317,   150.381088,   -439.83371
   1318,   179.821564,  -440.333099
   1319,   209.589737,  -441.348969
   1320,   65.5909576,  -145.781418
   1321,   95.1176147,   -131.10907
   1322,   84.4305878,  -136.069412
   1323,   56.1830368,  -151.166199
   1324,   237.272842,  -133.173767
   1325,   148.158539,  -168.792435
   1326,   139.949707,  -167.424667
   1327,   21.2704372,  -158.953568
   1328,   229.322128,  -441.037079
   1329,   132.062775,   -167.59787
   1330,   233.732635,  -167.317871
   1331,   69.5592499,  -430.905609
   1332,   140.357956,  -180.205292
   1333,   21.4771786,   -382.21463
   1334,    230.56279,  -269.230621
   1335,   187.125214,   -169.41156
   1336,   235.644379,  -380.642822
   1337,   19.3521137,   -242.79451
   1338,    209.88266,  -433.175476
   1339,   19.4321957,  -411.174896
   1340,   97.6187515,  -142.243378
   1341,   97.2229156,  -432.476562
   1342,   233.392349,  -240.632416
   1343,   219.668854,  -169.932312
   1344,   209.320908,   -179.82048
   1345,    17.759388,  -270.887695
   1346,   178.785431,  -186.780548
   1347,   233.143539,  -352.129059
   1348,   171.112244,   -180.40181
   1349,   154.893311,  -177.142258
   1350,    130.28241,  -160.945831
   1351,   24.6424236,  -299.611389
   1352,   226.527267,   -212.01474
   1353,   223.023544,  -324.269562
   1354,   143.333969,  -155.516479
   1355,   225.073135,  -426.554077
   1356,   18.0319386,  -328.624512
   1357,   160.510712,  -428.880432
   1358,   234.398178,  -184.164917
   1359,   20.3227615,  -190.034103
   1360,   225.296997,  -291.267395
   1361,   49.2330551,   -430.39743
   1362,   25.9178085,  -363.487762
   1363,   235.661255,  -397.722351
   1364,   24.7535019,  -226.547943
   1365,   189.570145,  -431.113708
   1366,   194.404358,  -187.874374
   1367,   108.882149,  -149.459717
   1368,   231.815155,  -259.616486
   1369,   20.5198536,  -391.764038
   1370,   79.4309311,   -431.82074
   1371,   234.073593,  -371.694977
   1372,   18.6271896,  -251.920425
   1373,    233.90126,  -231.127045
   1374,   111.807304,  -156.762375
   1375,   17.2387505,  -280.413788
   1376,   232.866745,  -342.329163
   1377,   101.576134,  -121.803642
   1378,   88.7160721,  -144.982025
   1379,   17.3041019,  -318.979126
   1380,   234.585648,  -193.385803
   1381,   150.564743,  -429.451935
   1382,   20.5127316,  -179.492172
   1383,   228.646713,  -303.036041
   1384,   29.2660847,  -430.788605
   1385,   231.708344,  -414.314911
   1386,   17.3758926,  -345.468597
   1387,   179.876923,  -430.738464
   1388,   19.5724316,  -206.418137
   1389,   96.7853394,  -161.205139
   1390,   178.403076,  -194.242432
   1391,    114.73114,  -163.650238
   1392,   221.423782,  -266.917633
   1393,   227.804535,  -169.199783
   1394,   224.954178,   -239.63707
   1395,   226.668671,  -202.923416
   1396,   202.410416,  -195.216736
   1397,   167.191086,  -184.002777
   1398,   128.111191,  -180.689224
   1399,   201.861465,  -180.612808
   1400,   226.163712,  -185.060959
   1401,   226.196671,  -221.190491
   1402,   224.016815,  -248.824799
   1403,   229.925873,  -388.588898
   1404,   122.282097,  -162.122116
   1405,   219.183701,  -275.895538
   1406,    186.37854,  -194.760742
   1407,   216.813675,   -179.13916
   1408,   145.353119,  -187.368225
   1409,   218.790085,  -433.650238
   1410,   210.000458,  -187.272842
   1411,   226.576767,  -193.942337
   1412,   135.289993,  -191.803879
   1413,   210.407944,  -195.030945
   1414,   150.805847,  -189.863556
   1415,   100.743797,  -168.221985
   1416,   225.188461,  -176.007233
   1417,   164.535202,  -189.143463
   1418,   169.981995,  -193.418777
   1419,   178.352371,  -201.696381
   1420,   218.440018,   -211.78923
   1421,   225.676666,  -230.413147
   1422,   222.866531,  -257.933105
   1423,    124.67057,  -187.818909
   1424,   210.921646,  -272.285858
   1425,   116.758041,   -184.49501
   1426,   215.156219,  -284.470734
   1427,   228.658737,  -395.711853
   1428,   215.250031,  -247.312149
   1429,   194.306976,  -202.678635
   1430,   117.416435,  -170.183456
   1431,   143.078659,  -192.652222
   1432,    111.21978,  -187.143234
   1433,    123.42292,  -196.456024
   1434,   219.288193,  -306.462433
   1435,   194.037292,  -210.453522
   1436,   204.473328,  -270.070129
   1437,   207.978943,  -237.072266
   1438,    214.64978,  -397.142303
   1439,   208.675262,  -291.432159
   1440,   127.665863,  -192.735626
   1441,   213.812775,  -256.063416
   1442,   186.031876,  -209.797287
   1443,   206.527527,  -245.574219
   1444,   98.8933182,  -177.624481
   1445,   218.481277,   -194.57431
   1446,   200.456619,  -274.654846
   1447,   210.297485,  -211.473297
   1448,   156.624115,  -192.588745
   1449,   217.372162,  -229.546432
   1450,   226.723129,  -403.090729
   1451,   178.266693,  -209.123459
   1452,   162.795731,  -194.601196
   1453,   210.495926,  -203.131012
   1454,   131.997208,  -196.005554
   1455,    195.23526,  -269.379791
   1456,   193.493042,  -218.330978
   1457,   197.998947,  -243.533646
   1458,   219.185547,  -417.240204
   1459,   142.991913,  -201.841675
   1460,   114.756874,   -192.54068
   1461,   94.4614258,  -171.441833
   1462,   102.356094,  -183.798523
   1463,   206.670624,   -303.92627
   1464,   214.967392,  -390.540344
   1465,   171.003967,  -208.549103
   1466,   209.826996,  -219.973618
   1467,   161.670593,  -202.714066
   1468,   221.731171,   -315.14801
   1469,   113.772881,  -178.553162
   1470,   202.142822,  -211.022552
   1471,   204.647476,  -254.078934
   1472,    189.12149,  -264.888184
   1473,   191.363235,  -233.870346
   1474,   83.1956558,  -168.788269
   1475,   193.132751,  -258.492371
   1476,   129.573608,  -199.660797
   1477,   200.794693,  -227.387054
   1478,   214.413452,  -325.655182
   1479,   195.896988,  -251.305115
   1480,   192.611511,  -226.154709
   1481,   134.122375,   -205.90799
   1482,   177.635544,  -216.519775
   1483,   189.741928,  -275.043945
   1484,   109.926765,  -196.321762
   1485,   156.420166,  -209.998123
   1486,   162.677673,  -213.826706
   1487,   214.926773,  -410.692688
   1488,   117.843323,  -196.726074
   1489,    195.59436,  -291.130676
   1490,   92.7399673,  -153.500061
   1491,   98.2286682,  -193.788727
   1492,   84.8309174,  -157.062408
   1493,   218.388443,  -425.867432
   1494,   168.714706,  -222.459122
   1495,   189.059753,  -296.193909
   1496,   134.984253,  -214.140793
   1497,    189.66597,  -285.396118
   1498,   176.673706,   -223.66922
   1499,   209.058716,  -228.529449
   1500,    185.00943,  -255.390884
   1501,   223.853577,  -333.623077
   1502,   120.336006,  -208.695892
   1503,   96.9694824,  -185.878738
   1504,   189.683105,  -241.405502
   1505,   206.048309,  -326.773895
   1506,   181.697098,  -239.415466
   1507,   145.594604,  -212.835983
   1508,   115.605133,  -200.748032
   1509,    112.74173,  -206.248856
   1510,   172.160263,  -244.447266
   1511,   169.933365,  -251.277466
   1512,   224.403976,  -343.123901
   1513,   127.346626,   -217.07074
   1514,   177.349411,  -253.246918
   1515,   183.482468,  -290.296539
   1516,   184.571564,  -224.895111
   1517,   187.389374,  -307.082855
   1518,   174.027069,   -237.60318
   1519,   148.287155,  -223.175888
   1520,   107.939346,  -181.106705
   1521,   100.892754,  -206.700714
   1522,   211.064865,  -310.576599
   1523,   90.5524445,  -191.697723
   1524,   160.588364,  -228.294357
   1525,   94.0586472,  -180.756149
   1526,   184.430954,  -270.484802
   1527,   79.8784409,  -149.031525
   1528,   210.875229,  -425.735413
   1529,   159.376389,  -234.365707
   1530,   177.275803,  -294.937988
   1531,   119.495766,  -214.577835
   1532,   83.0337753,  -189.966278
   1533,   178.790802,  -274.743683
   1534,   204.656204,  -425.032135
   1535,    83.660347,  -181.130737
   1536,   140.085785,  -220.065979
   1537,   81.9833984,  -197.455246
   1538,   180.218048,  -266.701263
   1539,   121.067276,  -221.274963
   1540,   177.956772,  -284.728546
   1541,   216.056473,   -343.95401
   1542,   166.612961,    -235.9263
   1543,   96.6503754,  -212.789413
   1544,   71.3764877,  -153.854492
   1545,   159.843903,  -221.263306
   1546,   145.659805,  -229.420578
   1547,   85.2689362,  -215.410843
   1548,   113.646889,  -222.255264
   1549,   132.270294,  -224.065414
   1550,    167.41835,  -258.361328
   1551,   171.574341,  -289.337341
   1552,   145.092651,  -235.143402
   1553,   173.289352,  -268.286072
   1554,   70.6956863,  -166.657349
   1555,   151.788452,  -232.766388
   1556,    162.63974,   -249.09166
   1557,   176.536682,  -304.966949
   1558,   88.4185257,  -208.024414
   1559,   77.3340607,  -182.587921
   1560,   73.6710205,  -194.608429
   1561,   175.518829,  -230.670044
   1562,    103.77343,  -218.252045
   1563,   147.620758,  -242.455185
   1564,   155.332901,  -246.482193
   1565,   165.359558,  -294.542908
   1566,   63.2017479,  -198.354431
   1567,   72.1922531,  -178.067169
   1568,   224.720123,   -352.79184
   1569,   164.554901,  -265.976501
   1570,   136.186066,  -235.663467
   1571,    99.693161,   -223.97876
   1572,   160.992447,  -275.071045
   1573,   65.6195908,   -191.06871
   1574,   68.4365616,   -184.19043
   1575,   165.962723,  -283.287476
   1576,   82.3349991,  -222.756546
   1577,   180.483093,  -311.139679
   1578,    77.407402,  -173.376175
   1579,    77.340889,  -212.102936
   1580,   114.597527,  -230.822983
   1581,   108.157463,  -223.132568
   1582,   152.937103,  -269.927338
   1583,   158.707077,   -289.00177
   1584,   145.167892,  -249.841843
   1585,   103.314781,  -234.805008
   1586,   66.6818466,  -216.153305
   1587,   167.068314,  -304.267395
   1588,    54.935379,  -195.139923
   1589,   216.420258,  -353.324036
   1590,   96.1766129,  -229.749283
   1591,   71.6920547,  -226.850662
   1592,   157.993454,  -240.544174
   1593,   123.432037,  -240.103516
   1594,   60.7525101,  -179.550858
   1595,   131.911926,  -242.750381
   1596,   69.1369019,  -208.882462
   1597,   61.3862991,  -229.182037
   1598,   125.528313,  -254.546463
   1599,   112.510162,   -240.31012
   1600,   98.0622177,   -240.64299
   1601,   146.557388,  -265.305908
   1602,   48.9601021,   -183.62384
   1603,   224.653442,  -373.697937
   1604,   150.922867,  -296.981323
   1605,   152.696655,  -252.826752
   1606,   56.5830421,  -166.173615
   1607,   64.0662994,   -223.04483
   1608,   145.093521,  -288.593506
   1609,   58.5612488,  -213.106903
   1610,    52.054966,   -174.69313
   1611,   52.7055588,  -202.919312
   1612,   146.721024,  -276.155762
   1613,   137.920395,  -247.322418
   1614,   170.946777,  -308.503357
   1615,    158.32402,  -307.936646
   1616,   80.1919937,   -231.57225
   1617,    141.07312,  -270.138824
   1618,   136.908463,  -293.253143
   1619,   133.572983,  -254.880173
   1620,   86.1513748,  -239.158905
   1621,   109.982941,  -253.669815
   1622,   74.2913589,  -238.203583
   1623,   61.4771309,  -239.549637
   1624,   46.5210838,  -192.271225
   1625,   39.9998817,  -180.837097
   1626,   97.1434097,  -253.279831
   1627,   48.3523483,  -217.950073
   1628,   54.0580711,  -226.733627
   1629,   216.165665,  -372.207153
   1630,   150.453003,  -306.841522
   1631,   165.236465,  -309.609772
   1632,   43.0135689,  -208.434891
   1633,   173.456512,  -314.525696
   1634,    35.997036,  -207.192688
   1635,   129.872238,  -267.139954
   1636,    129.49469,  -297.243134
   1637,   176.621567,  -321.226379
   1638,   131.975677,   -286.06076
   1639,   161.307053,  -323.513092
   1640,   169.966797,  -323.654572
   1641,   228.903015,  -381.964661
   1642,   119.634468,  -256.025055
   1643,   35.4088936,  -198.960129
   1644,    52.757782,  -232.894119
   1645,   68.8435593,  -244.458466
   1646,   80.5217667,  -243.802048
   1647,   52.9783554,  -238.656448
   1648,    142.32103,  -308.486969
   1649,   115.295815,  -259.323975
   1650,    46.150444,  -225.232025
   1651,   124.773521,  -290.799591
   1652,   179.459869,  -329.302643
   1653,   64.2342834,  -250.792847
   1654,    53.615345,  -252.783295
   1655,   76.6465073,  -259.707336
   1656,   134.205566,  -274.454742
   1657,   224.246185,  -386.254578
   1658,   87.0548477,  -258.437134
   1659,   120.591133,  -270.340454
   1660,   132.077637,  -304.321869
   1661,   155.694321,  -321.471191
   1662,   187.375824,  -324.430359
   1663,   165.464676,  -326.031006
   1664,   37.8209534,  -223.487656
   1665,   150.500168,  -314.320618
   1666,   46.4289131,  -239.237732
   1667,   134.481522,  -311.603394
   1668,   49.5467987,   -258.24472
   1669,   82.9322662,  -263.935272
   1670,   165.181335,  -331.347382
   1671,   118.649193,  -296.473022
   1672,   177.626862,  -338.385956
   1673,   184.196381,  -339.273376
   1674,   119.150101,  -284.360016
   1675,   217.167068,  -381.240387
   1676,   152.771683,  -327.572662
   1677,   150.875778,  -319.857513
   1678,   65.7260437,  -261.344452
   1679,   38.5749512,  -243.796616
   1680,   72.0866776,  -265.636108
   1681,   59.6054802,  -257.014008
   1682,    106.96833,  -271.101105
   1683,   191.678009,  -313.780792
   1684,   123.466484,  -307.390686
   1685,    89.954277,  -253.671982
   1686,   110.914726,  -291.180145
   1687,   67.5511017,  -271.804413
   1688,   118.283447,  -312.634277
   1689,   141.578568,  -338.771545
   1690,   164.631485,  -338.887329
   1691,   100.144615,  -265.728302
   1692,   84.8668518,   -273.60321
   1693,   139.526276,  -323.928558
   1694,   183.666794,  -347.064545
   1695,   89.2234879,  -267.713959
   1696,   96.8537445,  -281.517151
   1697,   115.424828,   -303.64743
   1698,   113.672447,  -277.316315
   1699,   150.314087,  -334.235291
   1700,   171.413818,  -337.793243
   1701,   44.1116333,  -255.176056
   1702,   191.497681,  -338.570251
   1703,   54.4950714,  -263.120209
   1704,   207.675858,  -381.473663
   1705,    147.99617,  -341.366791
   1706,   63.2198181,  -278.068939
   1707,   86.9306488,  -283.098785
   1708,    198.75444,  -391.735596
   1709,   105.726265,  -308.696136
   1710,   183.471024,  -355.107574
   1711,   94.3979416,  -294.358856
   1712,   191.947067,  -354.610626
   1713,   119.283867,   -319.92691
   1714,   47.7373505,  -269.418823
   1715,   136.286026,  -336.658844
   1716,   95.5259018,  -271.745911
   1717,   198.859436,  -381.765411
   1718,   74.2044907,  -275.841583
   1719,    190.33963,   -330.97525
   1720,    135.34256,  -329.921875
   1721,   130.551559,  -322.774994
   1722,   169.464661,  -344.399841
   1723,   195.394379,  -320.884033
   1724,   70.0054855,  -282.129669
   1725,   103.567177,  -315.674988
   1726,   145.377274,  -348.739502
   1727,   83.2840424,  -288.938477
   1728,    89.589798,  -291.718964
   1729,   100.361618,  -299.837982
   1730,    153.35997,  -351.143585
   1731,   184.308609,  -362.721619
   1732,     160.7603,  -344.862061
   1733,   200.041779,  -354.228668
   1734,     200.4758,  -401.479675
   1735,   37.6133575,  -272.571747
   1736,   56.1032562,   -273.99411
   1737,   199.478729,  -372.228912
   1738,   131.647171,  -341.164764
   1739,   106.714912,  -322.907135
   1740,   93.2151489,  -286.747681
   1741,   190.310349,  -381.426178
   1742,   173.132538,  -356.807068
   1743,   91.2769318,  -305.898834
   1744,   150.605057,  -359.187012
   1745,    87.064888,  -297.443024
   1746,   182.356796,   -379.43689
   1747,   65.8586044,  -288.180817
   1748,    191.47113,  -371.819672
   1749,   134.420242,  -352.641144
   1750,   76.5504837,   -286.05426
   1751,     101.6035,  -322.026764
   1752,   113.784477,  -325.298035
   1753,   127.506752,  -334.711517
   1754,   199.815765,  -345.670563
   1755,   167.182419,  -367.411804
   1756,   207.167725,  -335.845978
   1757,   52.5062256,  -280.580383
   1758,   199.180771,  -337.220612
   1759,   84.4187851,  -303.670654
   1760,   175.075638,  -376.933502
   1761,   72.3718491,  -293.953888
   1762,   147.482208,   -366.90567
   1763,   116.914871,  -332.089264
   1764,   159.260147,  -362.322083
   1765,   49.1402969,  -287.174591
   1766,   130.835953,  -360.019135
   1767,   94.9608841,  -321.242035
   1768,   216.502213,  -362.842346
   1769,   199.953506,  -363.035797
   1770,   124.831932,  -366.055237
   1771,   165.639725,  -380.185822
   1772,   146.094345,  -372.944305
   1773,   88.7354889,  -312.870972
   1774,   66.9325638,  -305.514832
   1775,   54.9545059,  -291.758453
   1776,   74.4552536,  -302.724091
   1777,   138.153625,  -365.828705
   1778,   101.309914,  -328.920929
   1779,   87.4702759,  -320.373383
   1780,   42.2386551,  -284.585144
   1781,   192.610596,  -403.343506
   1782,   208.175629,  -353.826324
   1783,   125.296082,  -348.228577
   1784,   169.419312,  -375.091736
   1785,    194.86972,  -412.114563
   1786,   69.6810837,  -313.050903
   1787,   144.520325,  -382.446808
   1788,   110.865936,  -344.627472
   1789,   155.626144,  -381.549072
   1790,   101.815987,  -336.332977
   1791,    113.01548,  -365.090729
   1792,   167.542267,  -392.055511
   1793,   56.2172508,  -300.364288
   1794,   79.3736115,  -319.759674
   1795,   130.085114,  -372.093597
   1796,   71.7773361,   -328.04834
   1797,    150.80574,  -387.540009
   1798,   123.625786,  -377.706909
   1799,   108.077469,  -358.086029
   1800,   109.430656,  -335.342682
   1801,   134.463486,  -378.589905
   1802,   86.9381866,  -328.312744
   1803,    117.62426,  -382.872101
   1804,   146.380936,  -392.848328
   1805,   86.6608505,   -336.21875
   1806,   156.206406,  -393.273621
   1807,   70.7987976,  -335.317566
   1808,   103.810097,  -351.206879
   1809,   135.817078,  -388.485291
   1810,   63.3708191,  -322.428131
   1811,   53.2331657,  -318.583374
   1812,   93.9640579,  -355.454651
   1813,   122.120926,  -387.074982
   1814,    78.863327,  -335.788025
   1815,   150.401031,  -398.775848
   1816,   94.2168808,  -336.593048
   1817,   109.185417,  -397.862671
   1818,   102.197693,  -344.209106
   1819,    146.98555,  -410.181061
   1820,   155.055054,  -406.254913
   1821,   93.5887375,  -370.654694
   1822,   127.550957,  -394.730682
   1823,   47.3370514,  -302.196991
   1824,   86.2941284,   -344.13208
   1825,   85.1644669,  -351.606079
   1826,   135.071854,  -405.059235
   1827,   40.5988159,  -292.235657
   1828,   39.7357674,  -299.832764
   1829,   78.2613068,  -350.592987
   1830,   99.0648422,   -393.73526
   1831,   168.170502,  -405.644073
   1832,   117.875351,  -400.894226
   1833,    134.75798,  -395.944122
   1834,   80.7640915,  -356.902618
   1835,   69.8435364,  -352.014313
   1836,   34.3375397,  -316.356812
   1837,   93.2948227,  -384.130035
   1838,   149.819931,  -419.196564
   1839,   77.2426758,  -366.696442
   1840,   81.5460815,  -373.012177
   1841,   70.2996292,   -343.03067
   1842,   132.207611,  -412.818665
   1843,   32.3896561,  -299.634918
   1844,   24.9249496,  -308.742981
   1845,   69.1825409,  -370.612213
   1846,   61.2731285,  -333.759399
   1847,   82.9161606,  -380.354095
   1848,   56.3041801,  -326.063995
   1849,   56.0382118,  -342.547821
   1850,   25.0687943,   -290.36084
   1851,    76.246048,  -382.186768
   1852,   25.8763466,   -318.03244
   1853,   77.3363037,  -389.496246
   1854,    26.046936,  -280.994202
   1855,   54.0691566,  -347.972992
   1856,   69.1158524,  -381.661346
   1857,   51.6324234,  -337.638306
   1858,   42.6430817,  -313.898285
   1859,   43.2748489,  -340.420135
   1860,   28.9978142,  -338.944672
   1861,   78.3129959,  -398.529358
   1862,   88.3071747,  -396.336884
   1863,   39.2805862,  -333.513458
   1864,    27.137043,  -271.635162
   1865,   43.6835175,  -351.480194
   1866,   61.4946556,  -398.711151
   1867,   36.4097519,  -325.108307
   1868,   98.4118805,   -405.38446
   1869,   89.3533554,  -414.722656
   1870,   27.4306984,  -262.273865
   1871,   36.5532341,  -253.640137
   1872,   81.1627502,  -406.335175
   1873,   80.7940598,  -414.486786
   1874,   27.9117851,   -252.91394
   1875,   28.6670876,  -244.186554
   1876,   79.9168015,   -422.97937
   1877,   88.8591385,  -423.558685
   1878,   74.7087173,    -405.6297
   1879,   28.3852882,  -237.052582
   1880,   64.9009705,  -410.407745
   1881,   68.0371323,  -403.329346
   1882,   97.2214432,  -423.963654
   1883,   70.3512497,  -421.637756
   1884,   116.064278,  -409.280304
   1885,   52.8902245,  -408.259369
   1886,   29.6591167,  -219.614578
   1887,   105.382782,  -424.964874
   1888,   114.705521,  -418.220428
   1889,   113.183899,  -427.524292
   1890,   120.367569,  -439.399536
   1891,   123.074738,  -419.979858
   1892,   131.624405,  -421.077545
   1893,   140.309128,  -420.888367
   1894,     171.4655,  -419.445892
   1895,   40.5578156,  -385.239441
   1896,   246.752594,  -97.4347839
   1897,   8.29617977,  -299.843475
   1898,   9.82028961,  -440.189636
   1899,   130.434525,  -439.927063
   1900,   240.725876,  -321.882263
   1901,    242.33844,  -212.243423
   1902,   108.059669,  -114.551819
   1903,   120.910576,   -99.803978
   1904,   124.940506,  -99.6259308
   1905,   242.230972,  -100.240883
   1906,   233.281693,  -98.7364807
   1907,   237.433945,  -97.5275803
   1908,   30.5473309,   -179.45787
   1909,   118.726852,  -125.134407
   1910,   122.141647,  -121.319504
   1911,   126.361694,  -102.658546
   1912,   100.767426,  -151.005035
   1913,   129.806717,  -116.339989
   1914,   223.862778,  -410.130219
   1915,   97.8120346,  -415.140869
   1916,   230.991669,  -102.232574
   1917,    28.846077,  -411.864227
   1918,   31.4020977,  -383.977905
   1919,   36.1738892,  -367.232758
   1920,    125.72821,  -124.622177
   1921,    119.47393,  -136.358841
   1922,   39.6913071,   -359.19574
   1923,   34.1183434,  -213.310364
   1924,   40.7988358,  -215.883591
   1925,   231.034744,  -132.103439
   1926,   24.2266903,  -196.916245
   1927,   29.8075237,  -194.599716
   1928,    130.22673,  -128.297668
   1929,   134.855652,  -104.606461
   1930,   196.427551,  -420.816345
   1931,   180.421036,  -421.528717
   1932,   48.2695923,  -420.810516
   1933,   37.7565994,  -412.386139
   1934,   38.1887169,  -403.824402
   1935,   201.416138,  -297.348755
   1936,   107.512009,  -165.659775
   1937,    139.18573,  -118.760437
   1938,   220.087952,  -399.853363
   1939,    42.249279,  -378.263885
   1940,   48.9064293,  -362.930878
   1941,   51.3846283,  -354.905701
   1942,   143.540192,  -402.518921
   1943,   204.606766,  -317.040619
   1944,   48.2032471,  -329.764923
   1945,   135.142151,  -128.909882
   1946,   201.805832,   -410.74292
   1947,   222.460114,  -136.102646
   1948,   50.5912209,  -210.532516
   1949,   209.245087,  -400.827087
   1950,   182.018936,  -413.240479
   1951,   201.845108,   -285.53537
   1952,   224.972305,  -115.086464
   1953,   45.8259506,    -412.0112
   1954,    59.653614,  -406.022247
   1955,   45.5420952,  -405.589355
   1956,   46.8096428,  -399.742554
   1957,   51.1215553,   -243.61554
   1958,   205.529602,  -147.709518
   1959,   110.707924,  -172.262878
   1960,   124.524651,  -168.607819
   1961,   58.9158363,  -356.682495
   1962,   48.4888458,  -383.193146
   1963,   50.4760857,  -310.790558
   1964,   180.615036,  -401.621887
   1965,   120.164009,   -393.26767
   1966,   112.857773,  -389.799835
   1967,   139.797104,  -126.119415
   1968,   141.576767,  -115.928757
   1969,   149.623077,  -156.986511
   1970,    139.20137,  -128.783997
   1971,   62.2926788,  -342.110443
   1972,    185.92569,  -407.300415
   1973,   205.368057,  -139.892532
   1974,    58.608696,  -308.097656
   1975,   112.044441,   -377.58078
   1976,     106.2547,  -371.172028
   1977,   65.0648117,  -357.567749
   1978,   119.893509,   -176.41185
   1979,   140.331665,  -174.063126
   1980,   147.595322,  -175.187256
   1981,   194.398727,  -195.126663
   1982,   79.8970566,  -204.747589
   1983,   179.352829,    -388.5271
   1984,   143.848846,  -126.543198
   1985,   150.355637,  -376.893158
   1986,   154.696732,  -370.245361
   1987,   150.275223,  -146.329575
   1988,    192.44281,  -164.330963
   1989,   187.543549,  -248.632751
   1990,   71.2066422,  -320.540436
   1991,   138.152283,   -383.09549
   1992,   61.8773956,  -292.833832
   1993,   204.577469,  -133.039963
   1994,   122.239113,  -182.296936
   1995,    134.12529,  -179.987976
   1996,   146.683304,  -181.479431
   1997,   152.922653,  -183.598846
   1998,   183.778946,  -370.922119
   1999,   149.110809,  -108.253403
   2000,   70.4505844,  -255.242325
   2001,   184.657974,    -333.1203
   2002,   115.706055,  -352.553589
   2003,   180.806625,  -169.582642
   2004,   153.890472,  -124.485474
   2005,   202.411499,  -109.445259
   2006,   129.633316,   -186.01564
   2007,   139.976135,  -185.736725
   2008,   197.982254,  -133.518341
   2009,   203.560287,   -124.31102
   2010,   161.713928,  -179.984222
   2011,   175.966263,  -369.436371
   2012,   204.576782,  -121.973007
   2013,   204.543243,  -115.455284
   2014,   125.225815,   -356.10968
   2015,   89.5177765,  -225.398758
   2016,   169.296478,  -274.264313
   2017,   81.1158829,   -254.14859
   2018,     86.08564,  -249.102158
   2019,   182.093201,  -174.448715
   2020,   130.740753,  -190.202728
   2021,   139.423096,  -190.063324
   2022,   147.820221,  -196.022903
   2023,   202.873886,  -119.742004
   2024,   162.075684,  -111.900833
   2025,   98.5026321,  -307.246399
   2026,   205.640854,  -111.506989
   2027,   79.7593384,  -300.508942
   2028,   160.058899,  -255.811768
   2029,   159.343079,  -124.904457
   2030,   157.095337,  -336.579865
   2031,   101.693275,  -276.529633
   2032,   139.370361,  -196.500107
   2033,   149.884628,  -206.074829
   2034,   128.090347,  -204.511688
   2035,    188.82959,  -111.650169
   2036,   174.238312,  -110.738136
   2037,   137.051071,  -318.524597
   2038,   146.041565,  -323.952087
   2039,   91.8338852,  -235.068146
   2040,   100.334229,  -291.601288
   2041,   101.568794,  -285.329987
   2042,   149.997772,  -259.265503
   2043,   165.136169,  -208.412399
   2044,   104.651466,  -259.386902
   2045,   112.590607,  -310.834351
   2046,   138.450607,   -227.74704
   2047,   139.721146,  -208.725266
   2048,   172.625031,   -121.02623
   2049,   177.207458,   -121.52504
   2050,   132.137955,  -210.105026
   2051,   107.178017,  -282.659973
   2052,   176.381439,  -113.218254
   2053,   174.050827,  -117.513939
   2054,   181.743484,   -114.30011
   2055,   116.323586,  -249.443695
   2056,   129.600433,  -248.228653
   2057,   141.850571,  -261.598572
   2058,    136.50087,  -263.634277
   2059,   127.283165,  -260.066681
   2060,   187.875275,  -116.836456
   2061,   149.091812,   41.5273209
   2062,   126.162384,   88.1292419
   2063,   131.444824,   88.8206635
   2064,   138.041229,   88.5072098
   2065,   143.637375,   87.2109756
   2066,   148.513168,   88.5405045
   2067,     153.1745,   88.9910812
   2068,   160.300995,   88.8084793
   2069,   165.231644,   88.4667511
   2070,   170.339844,   88.1541367
   2071,   175.368744,   88.4850616
   2072,   180.357681,   88.1776886
   2073,   186.049408,   86.9588699
   2074,   191.050354,   88.4711304
   2075,   195.722946,   89.0391693
   2076,   202.844009,   88.8965912
   2077,   207.619812,   88.5570831
   2078,   212.563629,   88.2593994
   2079,   217.804535,   87.7943039
   2080,   222.915604,   88.1674271
   2081,   229.725388,   88.3569412
   2082,   234.894318,   88.9211807
   2083,   239.525253,   89.0697632
   2084,   244.234879,   87.8112183
   2085,   126.357773,   84.4932175
   2086,     133.9673,   84.5835953
   2087,   137.772675,    83.864418
   2088,    144.68309,    83.121048
   2089,   149.883499,   81.7110596
   2090,    154.15535,   82.6628418
   2091,   160.462769,   84.1793518
   2092,   165.084122,   83.5293579
   2093,   171.424484,   81.2011108
   2094,   174.664978,   81.8311234
   2095,   180.022156,   83.5309525
   2096,   187.053146,   82.7260971
   2097,   192.476822,   81.6511612
   2098,   196.773056,   82.8302078
   2099,   202.547623,   82.3866653
   2100,   207.340271,   82.6544647
   2101,    212.22049,   83.5885849
   2102,   219.711685,   81.5297241
   2103,   224.114899,   83.2793579
   2104,   229.035385,   83.8474655
   2105,   237.450714,    82.387886
   2106,    244.50148,   82.2367477
   2107,   132.794357,   79.1331253
   2108,    136.63121,   78.5411682
   2109,   144.708328,   78.0723724
   2110,   148.588058,   77.9676666
   2111,   153.451111,   78.6790695
   2112,   157.839264,   77.6548386
   2113,   164.540466,   78.5538788
   2114,   168.646683,   77.3898087
   2115,   175.583954,    77.439949
   2116,   179.166595,   79.3586273
   2117,   185.267136,   78.5874405
   2118,   191.536957,   77.9043427
   2119,   196.254837,   78.5860062
   2120,   202.141373,   78.2402496
   2121,   207.203156,   77.5233307
   2122,   211.824478,   79.5444794
   2123,   218.833817,   77.7167664
   2124,   224.038116,   77.8685837
   2125,   227.971481,   79.1374207
   2126,   235.238434,   77.6706161
   2127,   240.010056,   78.1313629
   2128,   245.993347,   77.7575912
   2129,   133.533127,   73.5412827
   2130,   139.128738,   73.1697311
   2131,   144.803802,   72.4225082
   2132,   149.509262,   73.3635101
   2133,   153.935638,   74.0370407
   2134,     158.9366,   73.1189041
   2135,   163.604095,   73.6378632
   2136,   167.895767,   72.2452087
   2137,   175.403702,   73.7892685
   2138,   180.958969,   73.1248245
   2139,   185.803207,   73.2559967
   2140,    190.66597,   73.6890182
   2141,   195.555847,   73.0079575
   2142,   202.489548,   72.7468872
   2143,   207.936539,   71.3807297
   2144,   212.500885,   74.1934738
   2145,   218.460632,   71.9796143
   2146,   223.346191,   72.1205444
   2147,   229.093582,   72.3463058
   2148,   234.645981,   72.2761612
   2149,   239.718018,   72.0510941
   2150,   245.852066,   71.0301285
   2151,   138.044357,   69.8782272
   2152,   144.344269,   66.9289017
   2153,   148.798874,   68.1608353
   2154,   153.374542,   69.6594467
   2155,   159.706284,   67.5085449
   2156,   163.486618,   67.3330231
   2157,   168.778244,   67.1529388
   2158,   174.133987,   68.2865067
   2159,   181.437485,    67.529541
   2160,   186.532288,   67.9618073
   2161,   191.821121,   68.4058762
   2162,   197.284821,   67.9512405
   2163,   202.881027,    67.488472
   2164,    208.43895,    67.109169
   2165,   212.148376,   69.0700684
   2166,   216.648041,   67.4466171
   2167,   223.061508,   68.1208496
   2168,   228.403259,   70.3190002
   2169,   233.440552,   68.6070175
   2170,   238.290237,   68.3513107
   2171,   242.740265,   66.7840271
   2172,   138.002563,     64.36203
   2173,   143.176529,   63.9027672
   2174,   149.163849,   62.2609406
   2175,    154.10524,   62.7145615
   2176,   159.326752,   62.5639572
   2177,   164.855881,    62.587883
   2178,   169.939102,   62.8650627
   2179,   173.947952,   62.5587997
   2180,   179.938385,   62.4530678
   2181,   187.053833,   62.6874084
   2182,   191.774536,   63.0648079
   2183,   197.619675,   61.8499222
   2184,   202.234253,    61.879097
   2185,   206.830841,   62.8736267
   2186,   212.200638,   64.0407639
   2187,    218.93367,   62.8297691
   2188,   224.321854,   62.5242043
   2189,   229.235474,   63.9971466
   2190,   234.597153,   62.6384811
   2191,   238.489197,   63.0173759
   2192,   241.850769,   61.6426926
   2193,   243.136505,   57.4518623
   2194,   237.027588,   57.5495415
   2195,   234.401657,   56.5243034
   2196,   228.766937,   57.4466286
   2197,   224.528625,   56.3689651
   2198,   219.207443,   58.0061607
   2199,   212.886276,   58.2129173
   2200,   207.573502,   57.9054146
   2201,    204.08046,   57.7187958
   2202,   198.817444,   56.4634056
   2203,   192.424423,   55.8102264
   2204,   185.663437,    57.883194
   2205,   181.644028,   57.1319542
   2206,   176.543045,   57.0377846
   2207,   169.258728,   57.0257034
   2208,   164.712311,   56.9044456
   2209,   161.315994,   56.1826553
   2210,   153.672791,   58.2576942
   2211,   149.872635,   57.6142616
   2212,   143.356689,   58.5230179
   2213,   143.305771,   52.7550659
   2214,   150.700104,   54.2673492
   2215,   156.661087,   52.7354431
   2216,   160.028961,   51.0841179
   2217,   163.846237,   51.8330536
   2218,   168.503754,   52.3609886
   2219,   175.428589,   51.7924919
   2220,   180.096313,   51.1793938
   2221,   184.490158,   51.4010849
   2222,   190.528793,   51.6581764
   2223,   195.893387,   52.9713554
   2224,   202.577454,   52.4747353
   2225,   208.136673,   53.2870255
   2226,   214.780853,   53.9435196
   2227,    218.65744,   53.4163551
   2228,   223.280945,   51.5236855
   2229,   229.686249,   53.5782318
   2230,   234.472549,   51.8032722
   2231,   239.046585,   52.7640076
   2232,   243.452667,   52.9655571
   2233,   149.748627,   46.7853699
   2234,   154.129181,   45.8714104
   2235,   159.809601,   46.0078888
   2236,   163.268951,   46.0662613
   2237,   169.568497,    46.996666
   2238,   174.923218,    46.885704
   2239,   180.380936,   46.7390594
   2240,   186.430374,    47.721199
   2241,   190.575974,   46.1631126
   2242,   194.554138,     49.46315
   2243,   202.027359,   47.0632629
   2244,    207.42067,   48.8697319
   2245,   213.058304,   44.2510643
   2246,   217.803741,   47.9634819
   2247,   225.004166,    47.234623
   2248,   229.595795,   47.8302193
   2249,   232.783722,   48.3057785
   2250,   238.493469,   48.8034554
   2251,   245.319839,   46.1237373
   2252,   153.917297,   42.1662102
   2253,   160.906952,    41.035759
   2254,   165.769775,   41.9393349
   2255,   170.249222,   41.7357483
   2256,   175.144363,   42.4121208
   2257,   181.968552,   41.0853767
   2258,   185.961533,   41.2699585
   2259,   191.650131,   42.6019363
   2260,   195.934723,   42.8611336
   2261,   203.095871,   42.7454987
   2262,   207.253113,   42.3093071
   2263,   212.413269,   41.5311775
   2264,   218.198654,   40.4520569
   2265,   224.216522,   40.9034538
   2266,    227.89389,   40.7179947
   2267,   235.590927,   40.6136665
   2268,   239.826523,   41.6922112
   2269,   244.179031,   41.0538254
   2270,   244.729248,   36.0856819
   2271,   239.509537,   36.3472176
   2272,   233.571426,   35.7300301
   2273,   228.134125,   36.0661736
   2274,    223.63385,   35.6660805
   2275,   218.632034,   36.1525459
   2276,   211.200058,   34.6750717
   2277,   207.925552,   34.9591522
   2278,   202.385178,   38.2320251
   2279,   196.388962,   37.3605309
   2280,    192.85556,   37.1890945
   2281,   181.238525,   35.6837463
   2282,   177.394913,    37.945713
   2283,   170.837753,   36.9708786
   2284,   166.818329,   37.1378975
   2285,   160.075943,   35.8023148
   2286,   155.801514,   39.0467606
   2287,   150.113861,   36.8548927
   2288,   149.875595,   33.3555908
   2289,   155.187241,   29.9684772
   2290,   159.697952,   30.2998085
   2291,   164.131134,   30.2240658
   2292,   172.337311,   30.8190594
   2293,   177.593781,   30.4413395
   2294,     182.2883,   29.9413242
   2295,   187.194321,   30.8348007
   2296,   192.405869,   30.8478203
   2297,   195.376511,   31.1654015
   2298,   202.619461,    31.102993
   2299,    206.41893,   30.5036221
   2300,   212.742142,   30.1318779
   2301,   218.149567,   31.4239788
   2302,   223.123199,    31.039072
   2303,   229.532425,   31.8058434
   2304,    233.18425,    31.631773
   2305,   238.186951,   30.2183018
   2306,    244.09877,    31.024271
   2307,   155.321793,   25.3112774
   2308,   160.208862,    25.697752
   2309,   164.742401,   26.3932686
   2310,   169.262405,   26.4101944
   2311,   174.681778,   26.3174877
   2312,   181.351151,   25.2653027
   2313,   185.619827,   25.8676777
   2314,   189.975479,   26.9657078
   2315,   196.948029,   28.1770954
   2316,   201.964569,   26.9740582
   2317,   206.214142,    25.178627
   2318,   214.849579,   27.0090466
   2319,    219.71814,   26.5172138
   2320,   224.368515,   25.3376999
   2321,   229.532043,   25.9219093
   2322,   235.602478,   25.2583256
   2323,   239.926056,   25.4457893
   2324,   245.128845,   26.0356007
   2325,   155.276871,    20.700943
   2326,   160.102432,   20.7820034
   2327,   165.109833,   21.4241791
   2328,   169.806351,   19.9478226
   2329,    175.43779,   20.4876766
   2330,   180.899979,   20.6493473
   2331,   186.313705,   20.2314568
   2332,   193.056335,   22.1387978
   2333,   197.214386,   21.1617699
   2334,   200.761032,   21.5145321
   2335,   207.412842,   20.4559517
   2336,   212.658127,   22.5851974
   2337,   218.286224,   20.7684555
   2338,    223.91098,   20.6979904
   2339,   229.228516,   20.8418159
   2340,   233.954025,   20.7107258
   2341,   237.680099,    20.942215
   2342,   245.186813,   21.3946686
   2343,   243.830994,    16.072773
   2344,   238.790573,   15.7735558
   2345,   232.106323,   14.9166718
   2346,   227.120834,   13.5550404
   2347,   224.359116,   15.4911385
   2348,   218.567902,   15.3179369
   2349,   206.994598,   16.5999184
   2350,   200.845169,   16.0766029
   2351,    195.77858,   16.6825256
   2352,   191.286285,   16.3970928
   2353,   186.205048,   16.4382973
   2354,   181.805023,   15.2793884
   2355,   176.654526,   14.5310898
   2356,   170.565674,   15.0930891
   2357,   165.292053,   14.1956873
   2358,    160.21994,   15.4042139
   2359,   154.196793,   15.6909981
   2360,   154.478851,   10.4555922
   2361,   162.012451,   10.1073704
   2362,    166.91069,   9.49395466
   2363,   171.411804,   8.86975098
   2364,    181.70311,   10.4290352
   2365,    187.11972,   10.4405746
   2366,   192.433136,   10.6489649
   2367,   197.773087,   10.7897587
   2368,   202.946213,   10.3347292
   2369,    206.96463,   10.7848558
   2370,   211.215805,   10.8316631
   2371,   217.299988,   12.2167711
   2372,   223.939407,   10.2183456
   2373,   227.463837,   11.2996349
   2374,   235.307404,   9.34223461
   2375,   239.001541,   11.2579947
   2376,     245.5672,   8.43869686
   2377,   154.522644,   5.31656647
   2378,   159.310898,   5.39380598
   2379,   164.257904,   5.24051762
   2380,   169.145508,   5.03667688
   2381,   174.048996,   5.25224876
   2382,   179.601059,   5.53832054
   2383,   185.030807,   5.03945684
   2384,   189.534988,   4.00746012
   2385,   197.165756,   3.75347114
   2386,   202.236252,    4.5537262
   2387,   207.040344,   4.74192238
   2388,   212.014404,   5.37542582
   2389,   216.968842,   5.84534359
   2390,   223.074371,   5.98682976
   2391,   234.794403,   5.63870001
   2392,   238.971985,   5.03294086
   2393,   242.819855,   4.02204514
   2394,   154.573318,  -4.70569849
   2395,   159.343399,  -6.68237638
   2396,   164.522141,  -6.45920849
   2397,   168.147293,   -3.9576447
   2398,    174.83902,  -3.98840833
   2399,   180.669037,  -5.78445864
   2400,   186.300003,  -3.88909745
   2401,   192.557236,  -4.96785975
   2402,   198.527359,  -6.27190065
   2403,   202.029587,   -4.2608881
   2404,   207.285782,  -4.69654131
   2405,    213.12587,  -5.48055553
   2406,   219.031235,  -4.89771175
   2407,   223.417953,  -6.57668781
   2408,   228.750641,  -6.00533104
   2409,   233.964432,  -6.08799791
   2410,   238.470978,  -5.73219538
   2411,    243.58783,  -4.67414427
   2412,    242.16478, -0.892406166
   2413,   238.818573, 0.0937369913
   2414,   234.886963, -0.679760754
   2415,    228.98024, -0.409001142
   2416,   223.695084,    1.0185895
   2417,   217.836349,  0.835718095
   2418,   212.442642, -0.307130188
   2419,   207.197601,  0.348579437
   2420,   201.883942,   0.16125229
   2421,   196.942627,  -2.32731962
   2422,   190.189224,  0.373811871
   2423,   185.257507,  0.633822501
   2424,   182.627731, -0.719974756
   2425,   173.778381,   0.47871244
   2426,   169.087296,  0.436271697
   2427,   164.134705,     -1.67135
   2428,   159.294647,  0.528670251
   2429,   154.560501,  0.293921798
   2430,   154.609039,  -9.82255363
   2431,   159.891632,   -11.526185
   2432,    166.92421,  -10.0889368
   2433,    168.77243,   -9.6117363
   2434,   177.601532,   -9.8910017
   2435,   182.910477,  -9.01506901
   2436,   186.165176,  -9.04641628
   2437,    192.25824,  -10.6247597
   2438,   197.882904,  -11.3371468
   2439,   203.433594,  -10.0074844
   2440,   208.091217,  -9.95746326
   2441,    214.24408,  -9.73459721
   2442,   217.298172,  -8.91478443
   2443,   224.213272,  -10.0830107
   2444,   229.830521,  -8.46431923
   2445,   234.425919,   -9.6803484
   2446,   239.055176,  -8.97600842
   2447,    243.50322,  -8.92370605
   2448,    154.49472,  -15.0516233
   2449,   162.165176,  -15.8125019
   2450,   165.816727,   -15.703948
   2451,   172.436935,   -15.365757
   2452,     175.4319,  -15.1850376
   2453,   182.181549,  -14.7417955
   2454,   185.771805,  -14.9370928
   2455,   191.486877,  -15.9039202
   2456,   196.875885,  -15.9678993
   2457,    202.01149,  -15.3507242
   2458,   207.117737,  -15.0295219
   2459,    214.30925,  -15.9955015
   2460,   218.073029,  -16.1105385
   2461,    223.94838,  -15.3462486
   2462,   227.403214,  -13.1370802
   2463,   232.994843,  -16.6333885
   2464,   238.731689,  -12.8741875
   2465,   245.286606,   -15.994874
   2466,   155.914886,  -24.0427856
   2467,   160.157608,  -25.7154541
   2468,   164.845474,   -26.863657
   2469,   170.177475,  -26.9307232
   2470,   175.510757,  -26.0622082
   2471,   180.814514,  -25.7855129
   2472,   184.364563,  -25.3450851
   2473,   191.240234,  -26.3163166
   2474,   197.505447,  -25.0364876
   2475,   203.122879,  -27.1667423
   2476,   207.449966,  -26.5111561
   2477,   211.112762,  -23.8361416
   2478,   216.989868,  -25.2810459
   2479,   222.308533,  -25.9614429
   2480,   228.028748,  -26.0607948
   2481,   233.503922,  -26.1818466
   2482,   239.474731,  -25.8132381
   2483,   244.669525,  -26.1587048
   2484,    244.10907,  -21.1188335
   2485,   239.642532,  -20.3672981
   2486,   234.822556,  -21.4253368
   2487,   228.316681,  -21.0568295
   2488,   222.566956,  -21.7160854
   2489,   218.185852,  -21.0468903
   2490,   212.424911,  -21.3508129
   2491,   206.529861,  -19.8980618
   2492,   201.821579,  -21.5051517
   2493,   196.111786,  -20.0540714
   2494,   191.590424,  -21.3942089
   2495,   185.969742,  -20.7563114
   2496,   180.266006,  -22.8355274
   2497,   176.492828,  -20.5920372
   2498,   169.758133,  -20.9857578
   2499,    166.82785,     -21.5049
   2500,    159.55043,  -20.7470551
   2501,   155.632706,  -19.9933624
   2502,   149.218781,  -30.6141186
   2503,    153.63916,  -31.9220257
   2504,   158.610229,  -32.5066681
   2505,   164.520233,  -32.4614372
   2506,   169.498596,  -32.0841637
   2507,   174.019592,  -31.0416622
   2508,   180.453995,  -32.2989197
   2509,   185.945068,  -31.6705189
   2510,   193.055771,  -32.6980133
   2511,   199.143982,  -31.0493603
   2512,   202.615982,  -30.3420506
   2513,   208.385971,  -30.0431347
   2514,   212.317596,  -31.1902409
   2515,   218.412796,  -30.9419785
   2516,   224.518341,  -30.6006546
   2517,   229.872345,  -31.2290401
   2518,   233.157654,  -30.3362942
   2519,   238.021866,  -31.9740047
   2520,   243.945679,  -31.3426113
   2521,   150.318512,  -35.9000092
   2522,   155.083847,  -36.7618179
   2523,    159.52243,  -37.4650841
   2524,   165.643265,  -37.2571335
   2525,   170.644196,   -36.283329
   2526,   174.188095,  -37.0251961
   2527,   180.064636,  -37.6601791
   2528,   185.801239,  -38.1852913
   2529,    192.89534,   -36.586422
   2530,   198.020569,  -38.1430664
   2531,   202.126205,  -36.8783035
   2532,   207.535583,  -36.6507149
   2533,   211.437881,  -35.9182053
   2534,   216.994965,  -36.4259491
   2535,   223.929672,    -36.77705
   2536,   228.692078,  -35.4568291
   2537,   234.387177,  -36.5487709
   2538,   239.087845,  -37.0671539
   2539,   244.781448,   -36.581398
   2540,   150.112228,  -48.7951851
   2541,   155.225601,  -47.1775169
   2542,   160.748672,  -47.0266647
   2543,   165.362488,  -46.0370064
   2544,   170.613403,  -46.9100876
   2545,   177.517517,  -47.3109283
   2546,    180.41037,  -46.7953949
   2547,   186.985046,  -45.9498901
   2548,   192.478882,  -46.1872673
   2549,    198.39859,  -46.3342247
   2550,   202.075333,  -46.4911232
   2551,    207.12648,   -46.764801
   2552,   214.318039,  -46.3766212
   2553,   218.783813,  -47.4023323
   2554,   224.251831,  -45.8010483
   2555,   228.770294,  -46.9505081
   2556,   233.188416,  -47.2824745
   2557,   240.357864,  -47.8833771
   2558,   245.449356,  -46.4852066
   2559,   245.063141,  -41.5244408
   2560,   237.837814,  -42.6332207
   2561,   232.035583,  -41.7678108
   2562,   228.160873,  -42.2588615
   2563,   224.146362,  -41.2052841
   2564,   219.177917,  -40.6115532
   2565,   210.981689,  -40.7409897
   2566,   207.337463,  -42.7517891
   2567,   203.833679,  -41.4894485
   2568,   195.688187,  -42.8876953
   2569,   192.259995,  -41.6044502
   2570,   186.651672,  -42.0340424
   2571,   180.306747,  -41.4856339
   2572,   175.243973,  -42.9486465
   2573,   171.060913,  -40.4916649
   2574,    165.93367,  -40.6952972
   2575,   160.090027,  -41.0782814
   2576,   154.271545,  -41.7033463
   2577,    149.21637,  -40.7773819
   2578,   145.198593,  -52.0933685
   2579,   153.866302,  -52.2566757
   2580,   158.770966,   -52.445694
   2581,   164.339127,  -50.6782188
   2582,   169.838104,  -51.1223946
   2583,   176.068466,  -51.4618683
   2584,   181.951309,  -50.8915825
   2585,   187.289886,  -51.1158905
   2586,   191.534744,  -53.0679817
   2587,   196.333252,  -50.5817223
   2588,   203.764221,   -51.120491
   2589,   207.936188,  -51.4932404
   2590,   214.054581,   -52.774826
   2591,   218.597061,  -50.5631294
   2592,   223.198257,  -51.8790283
   2593,    230.34668,   -52.095211
   2594,   235.226578,  -51.3097038
   2595,   239.775925,  -51.8548775
   2596,   245.774872,  -53.2444191
   2597,   143.906448,  -57.7705765
   2598,   150.414612,  -57.7122421
   2599,   154.456207,  -58.0609512
   2600,   160.982025,  -57.4611015
   2601,   164.740997,  -56.8974915
   2602,   170.613449,  -56.5265923
   2603,   176.165558,  -55.8881073
   2604,   181.341736,  -56.8803749
   2605,   184.406555,  -56.5755806
   2606,   192.515839,  -60.3841057
   2607,     197.9944,  -56.1623459
   2608,   202.219131,  -56.1379089
   2609,   207.552917,  -57.0197411
   2610,   213.407196,  -56.0345421
   2611,   218.170609,  -58.3749962
   2612,   222.841171,  -55.8224564
   2613,   227.881378,  -55.7123947
   2614,   234.037186,  -55.7310181
   2615,   239.947586,  -56.5945091
   2616,    243.66478,  -57.2617722
   2617,   139.259109,  -67.4841156
   2618,   144.658737,  -66.8259735
   2619,   148.837997,  -68.7181396
   2620,   155.134293,   -67.742836
   2621,    160.65744,   -68.176239
   2622,   165.902603,  -68.9171448
   2623,   169.823486,  -67.5024414
   2624,   175.798782,  -68.4014206
   2625,   180.089935,  -68.1211395
   2626,   186.984055,  -66.4149094
   2627,   193.257172,  -68.2881393
   2628,   199.343033,   -68.644371
   2629,   202.315704,  -67.5739975
   2630,   207.486053,  -68.0442734
   2631,   212.924164,  -67.8049774
   2632,   219.645706,  -67.3554993
   2633,   224.374847,  -67.2243729
   2634,   227.490372,  -67.1680984
   2635,    232.95903,  -67.6629944
   2636,   238.010208,  -67.6131744
   2637,   242.849594,  -68.8597641
   2638,   243.906296,  -63.0225945
   2639,   239.260269,  -63.0063705
   2640,   232.912979,  -61.5042152
   2641,   228.253479,  -62.7852631
   2642,   225.201996,  -63.0739288
   2643,   220.227905,  -61.5457039
   2644,   214.126892,  -61.6160583
   2645,   207.685043,     -62.7472
   2646,   201.920868,  -61.9556885
   2647,   198.655975,  -63.0217209
   2648,   191.902252,  -62.9176483
   2649,   186.576126,  -61.2540131
   2650,   179.451447,  -63.4205093
   2651,   174.686417,  -63.3460808
   2652,   170.552322,  -61.7041512
   2653,    165.14003,  -61.7708855
   2654,    160.75206,  -63.1031075
   2655,   155.826767,  -63.1591301
   2656,   149.134369,  -63.5371094
   2657,   143.681885,   -63.639843
   2658,   138.159012,  -64.3042755
   2659,   133.665192,  -73.4246902
   2660,   139.548264,  -72.9455795
   2661,   144.962173,  -73.9493942
   2662,   149.735092,  -71.6287842
   2663,   161.183609,   -73.794281
   2664,   165.334641,  -72.6328125
   2665,   171.130966,  -75.0583038
   2666,   176.746887,  -73.6022949
   2667,   180.227997,  -72.8192749
   2668,   187.387924,  -70.9073563
   2669,    190.80603,  -72.0499268
   2670,   197.948807,  -72.3642883
   2671,    202.75354,  -73.0691376
   2672,   207.765335,  -72.9583359
   2673,   213.368881,  -71.5862274
   2674,   219.411713,  -73.5155716
   2675,   223.962402,  -71.9763336
   2676,    228.44838,  -72.9624023
   2677,   234.512497,  -73.1588745
   2678,   241.099838,  -73.3073349
   2679,   245.376373,  -73.3253784
   2680,   133.653336,  -78.9447327
   2681,   137.862976,  -77.7812729
   2682,   143.933655,  -79.1954346
   2683,   148.802048,  -79.0362854
   2684,   154.162994,  -78.7420731
   2685,   160.021378,  -78.0343475
   2686,   164.807907,  -77.2289886
   2687,    170.27742,    -77.21772
   2688,   174.849747,  -77.4728012
   2689,   180.774185,  -78.8045349
   2690,   187.518661,  -75.5571899
   2691,   191.764267,  -77.1420135
   2692,   196.851364,  -78.6303329
   2693,   201.489807,  -78.3758774
   2694,   206.623901,  -77.2404633
   2695,   212.368256,  -76.6379318
   2696,   216.369537,   -77.589859
   2697,   224.579178,   -78.886734
   2698,   228.713196,  -77.8515778
   2699,   234.181976,  -78.4714432
   2700,   240.760742,  -77.1467056
   2701,   245.057968,  -78.1994324
   2702,    126.59066,  -84.2390518
   2703,   133.077744,  -84.1542664
   2704,   137.879776,  -84.0880432
   2705,   142.887756,  -82.7771378
   2706,   150.380768,  -82.6236649
   2707,    154.55278,   -84.212532
   2708,   160.966476,  -84.2020187
   2709,   165.066437,  -83.1521606
   2710,    169.66333,  -82.0940552
   2711,   175.762604,  -81.7172089
   2712,   180.593506,  -82.2073364
   2713,   187.071442,  -80.7177124
   2714,   192.516144,  -84.3671799
   2715,    196.75795,  -83.3645859
   2716,   202.452667,  -83.6113968
   2717,   207.517914,   -82.661499
   2718,   212.109604,  -81.7466888
   2719,   218.101151,  -84.0994797
   2720,    223.38327,  -82.2415466
   2721,   228.962784,  -83.4921417
   2722,   234.932846,  -83.8033142
   2723,   239.180267,  -81.1505661
   2724,   244.727783,  -83.3024216
   2725,   126.786148,  -87.3306961
   2726,   130.803604,  -88.8122406
   2727,   137.487701,  -88.8460159
   2728,   142.703995,  -87.2489624
   2729,   147.942932,  -88.5921631
   2730,   152.585281,  -88.7946777
   2731,   157.558716,  -87.8690109
   2732,   164.995605,  -88.6626511
   2733,    169.79303,   -88.828598
   2734,   174.693344,  -88.7292709
   2735,   179.769363,   -88.227623
   2736,   184.971497,  -88.1791382
   2737,   189.982925,  -88.5955353
   2738,   195.119324,  -88.0021896
   2739,   200.236984,  -88.4716568
   2740,   205.493973,  -87.7251663
   2741,   210.551559,  -88.6143265
   2742,    215.27565,  -89.0298691
   2743,   222.076736,  -89.1320114
   2744,   229.386658,  -87.5362396
   2745,   234.920441,  -88.4952011
   2746,   239.879898,  -88.5217361
   2747,   244.886566,  -88.4202499
   2748,   247.793335,   55.8155251
   2749,   247.840973,   50.9161224
   2750,   247.653931,   46.0309944
   2751,   247.275436,   41.0456009
   2752,   247.340576,   36.0965042
   2753,   247.215759,   31.1074963
   2754,   247.539032,   26.1549797
   2755,   247.522598,   21.2168427
   2756,   247.170532,   16.1486893
   2757,   247.646057,   11.0710897
   2758,   247.689835,   6.09928274
   2759,   247.424088,   1.04298747
   2760,   247.869019,  -6.39813089
   2761,   247.849243,  -11.2618427
   2762,   247.631439,  -16.1664448
   2763,     247.2379,  -21.1760731
   2764,   247.293945,  -26.1656265
   2765,   247.111313,   -31.237339
   2766,   247.372711,  -36.2912521
   2767,   247.545959,  -41.2701874
   2768,   247.763031,  -46.2041893
   2769,   247.978149,  -51.0222626
   2770,   247.861542,  -55.8033943
   2771,   247.400696,  -60.7543259
   2772,   247.498032,  -68.4258957
   2773,   247.648422,  -73.3975983
   2774,   247.503281,  -78.3765259
   2775,   247.368683,  -83.3704453
   2776,   247.430725,  -88.4026871
   2777,   247.468704,   -90.902771
   2778,   247.391693,  -85.8897171
   2779,   247.404221,  -80.8710785
   2780,   247.608261,  -75.8794479
   2781,   247.616394,  -70.9226456
   2782,   247.305984,  -65.8668518
   2783,   247.161957,  -63.2845535
   2784,   247.695969,  -58.2453575
   2785,   247.936157,  -53.4217949
   2786,   247.903244,  -48.6231689
   2787,   247.637848,   -43.750824
   2788,   247.463562,  -38.7807732
   2789,   247.231171,  -33.7730865
   2790,   247.213547,  -28.6863403
   2791,     247.2742,  -23.6534996
   2792,    247.42955,  -18.6676044
   2793,   247.763718,  -13.7041645
   2794,   247.880951,  -8.82429695
   2795,   247.780457,  -3.94934058
   2796,   247.594543,  -1.44555604
   2797,   247.533646,   3.57623434
   2798,   247.732788,   8.57587051
   2799,   247.383835,   13.6229858
   2800,   247.323975,   18.6744881
   2801,   247.594315,   23.7076721
   2802,   247.379211,   28.6249161
   2803,   247.283081,    33.605999
   2804,   247.314758,   38.5873871
   2805,   247.462387,   43.5429688
   2806,   247.773514,   48.4789772
   2807,    247.84137,   53.3601418
   2808,   247.673523,   58.2964096
   2809,   247.165466,   88.0938644
   2810,   247.377625,   82.9653015
   2811,   247.976852,   78.1637802
   2812,   248.037964,   73.3754272
   2813,   247.751831,   68.4812088
   2814,   247.346832,   63.3693581
   2815,   247.484222,    60.827137
   2816,   247.514374,   65.9469299
   2817,   247.923264,   70.9479065
   2818,   248.059982,   75.7765961
   2819,   247.729263,   80.5681458
   2820,   247.245193,   85.4899216
   2821,   242.444519,  -90.9396591
   2822,   244.951187,  -90.9136658
   2823,   242.225281,   91.0275116
   2824,   232.316757,  -90.7676468
   2825,   234.896866,   91.1561127
   2826,   222.667053,   90.7751389
   2827,   205.134094,   91.0924225
   2828,   205.233749,   -90.709404
   2829,   202.677948,   91.1646652
   2830,   195.059525,  -90.7793045
   2831,   192.500824,  -90.8980255
   2832,   192.858856,   91.0982666
   2833,   185.459015,   90.4053192
   2834,   170.122528,   90.8336639
   2835,    165.11174,   90.9403305
   2836,   157.669159,   91.1762619
   2837,   152.772125,   91.1956024
   2838,   145.422562,   90.7253723
   2839,   130.176529,  -91.1026611
   2840,   137.571777,   -91.067276
   2841,   212.656509,  -91.1479568
   2842,   224.767639,  -91.1068802
   2843,   177.686462,    90.860199
   2844,   215.117996,   90.7267151
   2845,   130.741302,   91.1111145
   2846,   137.832718,   90.9385376
   2847,   195.312897,    91.209259
   2848,   212.564789,   90.8200226
   2849,   225.158875,   90.9081497
   2850,   232.418198,   91.0688477
   2851,   244.712463,   90.7474518
   2852,   145.088699,  -90.7329178
   2853,   152.533752,  -91.0603485
   2854,   157.518433,  -90.7969666
   2855,   164.937866,   -91.054863
   2856,    169.85788,  -91.1165009
   2857,   177.367859,  -90.9490814
   2858,   184.916214,   -90.810173
   2859,   202.668945,   -90.803566
   2860,   215.085022,  -91.2478867
   2861,   222.322113,  -91.2626266
   2862,   234.901382,  -90.8931885
   2863,    122.63205,   91.8395004
   2864,   120.576279,   91.7606201
   2865,   122.760857,  -92.2067108
   2866,   124.694946,  -91.9809036
   2867,   120.759415,  -91.8067169
   2868,     237.4328,  -90.9524918
   2869,   239.776886,    91.195137
   2870,   229.717697,   -90.657196
   2871,   229.955307,   91.0397186
   2872,   227.550934,   91.1676102
   2873,   217.639343,   90.6663513
   2874,   210.041779,   90.9213638
   2875,   200.112366,  -90.8673782
   2876,   207.711304,  -90.8381119
   2877,    197.76384,   91.2452011
   2878,   190.394424,   90.8919983
   2879,   180.240143,   90.7304001
   2880,   172.617157,   90.8698502
   2881,   162.483459,  -90.9811859
   2882,   167.384796,  -91.0962906
   2883,   159.984528,  -90.8723831
   2884,   160.134552,   91.1145401
   2885,   155.019272,  -90.9490433
   2886,   147.867096,   90.9471512
   2887,   140.398865,   90.7139053
   2888,   135.351715,   91.1002808
   2889,   132.944824,   91.1795044
   2890,   129.061218,     90.78022
   2891,   147.600342,  -90.9443588
   2892,   150.076691,  -91.0612106
   2893,   142.585297,  -90.5802917
   2894,   135.115387,  -91.2322845
   2895,   172.347305,  -91.1046295
   2896,   174.845886,  -91.0442047
   2897,   179.897324,  -90.8326569
   2898,   182.407806,  -90.7670746
   2899,   187.438965,  -90.8906021
   2900,   217.491837,  -91.3116226
   2901,   219.898285,  -91.3267975
   2902,   142.997238,   90.5441971
   2903,   150.319305,   91.1115875
   2904,   155.220688,   91.2102127
   2905,   162.614197,   91.0313187
   2906,   167.627045,   90.8638687
   2907,   175.149582,   90.8947144
   2908,   182.846786,   90.5339508
   2909,   187.924973,   90.6182251
   2910,   200.219254,    91.222229
   2911,   207.574554,   91.0110016
   2912,   220.134476,   90.6973801
   2913,   237.341629,   91.2138519
   2914,   127.310188,  -90.8162079
   2915,    132.67543,  -91.2143021
   2916,   140.064392,  -90.7981949
   2917,   189.957245,  -90.9409485
   2918,   197.581802,  -90.8357925
   2919,    210.19046,  -91.0063782
   2920,   227.239243,  -90.8631744
   2921,   239.942337,  -90.9535751
   2922,   152.237808,   2.66795731
   2923,   130.874451,    77.969429
   2924,   131.240707,  -77.9077225
   2925,   125.064987,   -86.275032
   2926,   144.652069,   47.7938728
   2927,   150.073608,   27.7792797
   2928,   128.205933,  -82.2168198
   2929,   146.074081,   43.0126038
   2930,   123.103889,   88.2699661
   2931,   142.277161,  -54.6718979
   2932,   150.903229,   20.3193665
   2933,   144.906631,  -48.7234077
   2934,   151.794052,  -15.0530891
   2935,   151.266647,   17.8329582
   2936,   134.726685,   71.2513123
   2937,   149.976791,  -28.1930008
   2938,   151.028809,  -22.7233067
   2939,   151.884003,   12.8433781
   2940,   146.895126,   -40.338047
   2941,   151.201706,  -20.1054859
   2942,   141.191223,   57.4738541
   2943,   152.254929,  -2.36966181
   2944,   152.257187,  0.143719882
   2945,   152.198532,   5.19401073
   2946,   152.005234,   -12.543498
   2947,   152.126465,  -9.98679352
   2948,    152.19162,  -7.42865467
   2949,   152.136551,   7.73691368
   2950,   148.617081,  -33.0117683
   2951,   151.490341,  -17.5524921
   2952,   145.655487,  -45.5130768
   2953,   152.044952,   10.2895241
   2954,   148.342316,   35.8675003
   2955,   151.635681,   15.3493843
   2956,   135.855942,   68.9558563
   2957,   135.922928,  -68.9080811
   2958,   152.231094,  -4.89557648
   2959,   146.289139,  -42.8467293
   2960,   149.899323,   30.3884926
   2961,   150.323914,   25.2708626
   2962,   151.057922,  -25.6092472
   2963,   146.868607,   40.6268578
   2964,   141.406021,  -57.1525917
   2965,   137.044617,  -66.6178436
   2966,   136.942001,   66.6582413
   2967,   124.754745,   86.5254059
   2968,   150.601501,   22.7981529
   2969,    123.56691,  -88.2219086
   2970,   134.802948,  -71.1716614
   2971,   142.293167,   55.1348381
   2972,   149.784821,  -38.3316612
   2973,   140.372833,  -59.5811157
   2974,   129.856781,   -80.142807
   2975,   140.109192,   59.7764664
   2976,   145.339066,   45.3946838
   2977,   129.459885,   80.1896133
   2978,   128.004227,   82.4293594
   2979,   132.245178,   75.7886734
   2980,   132.505844,  -75.6600266
   2981,   152.216019,  -29.2087173
   2982,   152.667221,   30.2226543
   2983,   129.901688,    -83.50354
   2984,     129.8405,   83.9520493
   2985,   140.367676,  -65.1449127
   2986,   150.854126,  -33.5553856
   2987,   136.923218,   72.2351151
   2988,    138.18898,  -69.7993164
   2989,   244.696503,   -66.011734
   2990,   245.535858,  -57.8207855
   2991,   245.620056,  -4.26936674
   2992,   245.091156,   3.59654236
   2993,   245.382278,   57.9449387
   2994,   245.658325,   53.1624908
   2995,   245.723267,   -8.8997221
   2996,   245.321075,  -70.9498138
   2997,    245.05777,   66.1381378
   2998,   232.350677,  -88.2177963
   2999,   172.855408,   88.3410492
   3000,   146.194336,   88.0246124
   3001,   150.282837,  -88.7994461
   3002,   177.194611,   -88.514328
   3003,   237.239609,   89.0434036
   3004,   242.371841,  -88.4584503
   3005,   202.678253,  -88.3443069
   3006,   193.380508,   88.8434067
   3007,   192.414032,  -88.5741425
   3008,   162.626328,  -88.5582504
   3009,   154.914139,  -88.5920258
   3010,   162.749466,   88.6523209
   3011,   167.790054,   88.2643509
   3012,   200.442581,   89.0321426
   3013,   220.352158,   87.9393234
   3014,   135.230118,  -89.1846008
   3015,   197.765701,  -88.3689957
   3016,   128.601608,  -88.3229065
   3017,   139.274765,  -61.9618874
   3018,   147.640137,   38.2684212
   3019,   144.003906,   50.2651138
   3020,   122.057037,   -90.051178
   3021,   152.801529,    25.329155
   3022,   147.515808,   46.0989189
   3023,   154.545166,   2.79543638
   3024,   152.965759,   22.9262676
   3025,   154.581665,  -7.23888683
   3026,   154.509964,   7.86078167
   3027,   148.046417,  -45.9270096
   3028,   154.567581,  -2.20584321
   3029,   153.224838,  -24.6796627
   3030,   153.737976,  -22.6208496
   3031,   154.427826,   13.0923805
   3032,   154.630295,  -12.4666748
   3033,   148.219757,   43.8238907
   3034,   153.991837,  -17.5323715
   3035,    144.65387,   56.2566681
   3036,   147.638702,  -48.8224297
   3037,   137.137253,  -72.0718536
   3038,   135.717545,   74.6306534
   3039,   147.724091,  -51.9617996
   3040,   148.638351,  -43.2974625
   3041,   232.458145,   88.7391357
   3042,   135.666534,   88.7949524
   3043,   188.685669,   87.8798828
   3044,   187.521011,  -88.4261398
   3045,   177.854431,   88.4237213
   3046,   145.484436,  -88.1089554
   3047,    219.78952,  -89.2265396
   3048,   237.398666,  -88.5467606
   3049,   129.779831,   88.6335754
   3050,   172.232376,  -88.8247681
   3051,   150.831787,   88.8488083
   3052,    212.92981,  -88.8579178
   3053,   215.189178,   87.9986191
   3054,   242.634567,   59.6651192
   3055,   242.766739,  -59.1878815
   3056,   243.055862,  -2.64120793
   3057,   242.030151,    1.9817754
   3058,   242.394867,  -66.6884079
   3059,   241.861588,   64.6852188
   3060,   243.373016,   55.2156105
   3061,   243.787674,  -55.4150772
   3062,   243.551453,  -6.74289608
   3063,   243.272858,   6.22303867
   3064,   243.095306,  -71.0712051
   3065,   243.336258,   69.0267029
   3066,   146.927155,    48.412323
   3067,   142.715988,  -60.3395119
   3068,   141.522354,   -62.776989
   3069,   232.752533,  -85.9839478
   3070,   232.782471,   86.5176315
   3071,   133.745407,  -86.4859543
   3072,   135.831573,   86.5319672
   3073,   123.705887,  -90.8545532
   3074,   190.004364,   85.4330368
   3075,    187.78952,  -86.0256577
   3076,   176.860687,  -86.1546326
   3077,   177.939499,   86.1240921
   3078,    147.50528,   85.5716705
   3079,   146.352829,  -85.8353882
   3080,   219.679886,  -87.1516953
   3081,   220.787811,   85.1401672
   3082,   152.666885,   27.7714272
   3083,   153.496231,  -27.4972553
   3084,   237.251984,   86.8809204
   3085,   237.330307,  -86.1483459
   3086,   129.653381,  -86.3088989
   3087,   128.638779,   86.7977524
   3088,   193.986496,   86.6740189
   3089,   193.894852,  -86.4305649
   3090,   172.088821,  -86.5710144
   3091,   173.279785,    85.897583
   3092,   134.370087,   77.0170746
   3093,   135.006546,  -76.6577225
   3094,   151.135956,   42.6463852
   3095,   151.424026,  -31.3226395
   3096,   127.678345,   85.7610092
   3097,   128.202499,  -85.3132172
   3098,   152.688797,  -36.3704491
   3099,   152.736115,   37.8818283
   3100,   151.422607,   86.6522598
   3101,   150.503448,  -86.6384506
   3102,   213.260803,  -86.5512543
   3103,   215.019089,   85.3170929
   3104,    140.24025,   70.7809219
   3105,   140.508392,   -70.665123
   3106,   245.113708,  -68.5531921
   3107,   245.752853,  -55.5349655
   3108,   245.988663,  -51.0528069
   3109,   245.653214,  -11.2500257
   3110,   245.727173,  -6.58514881
   3111,   245.425583,   6.07580233
   3112,   245.419846,   10.7830963
   3113,    245.63472,   50.8069344
   3114,   245.573166,   55.5395699
   3115,   245.516907,   68.6484528
   3116,   246.034927,   73.3379898
   3117,   242.262955,  -85.9286118
   3118,   156.914322,   -2.0430243
   3119,   200.582047,   86.8588028
   3120,   198.175049,  -86.0245438
   3121,   167.789139,   85.6081467
   3122,   156.895615,   2.89305258
   3123,   156.960251,   -6.9885478
   3124,   156.896713,   5.37851286
   3125,   156.966949,   10.4969854
   3126,   156.904037,  0.415585905
   3127,   156.924667,  -4.50984097
   3128,   156.224884,  -86.2526932
   3129,   156.921524,   7.90451193
   3130,   157.064011,  -9.54025555
   3131,   157.308365,  -12.2427254
   3132,   146.242752,   53.7841034
   3133,   204.221985,  -85.9891434
   3134,   160.580902,  -85.9751282
   3135,   162.806702,   86.2738037
   3136,   131.007019,  -85.0190659
   3137,   130.109131,   86.4928741
   3138,   244.114441,   75.4545059
   3139,   243.137955,  -75.5238876
   3140,   242.732071,   12.3845167
   3141,   243.420151,  -11.1764746
   3142,   244.314911,   -51.071682
   3143,   243.391937,   50.7357674
   3144,    159.47374,  -9.07687664
   3145,   159.366989,   7.85463619
   3146,   240.952499,   56.9324493
   3147,   241.141083,  -57.8390923
   3148,   241.968918,  -4.90471983
   3149,   240.720383,    4.4385972
   3150,   240.592392,  -69.2709656
   3151,   240.441925,   67.5190887
   3152,   241.233093,   52.8283157
   3153,   243.193375,  -52.9107819
   3154,   241.240677,  -8.87496853
   3155,   241.070053,   11.2860126
   3156,   243.209732,  -73.2906494
   3157,   241.939407,   73.5312805
   3158,   153.192078,  -34.0577431
   3159,   149.285507,   48.9541626
   3160,    234.99794,  -86.1531601
   3161,   235.018265,   86.7293549
   3162,   192.218521,  -86.4992523
   3163,   191.372971,   83.3255844
   3164,   175.636597,   86.1705322
   3165,   174.440247,  -86.4370651
   3166,   148.417343,  -86.4515228
   3167,   148.840744,   83.4298401
   3168,   217.944138,   84.3805542
   3169,   217.649094,  -86.8645172
   3170,   155.189163,   27.6970005
   3171,   239.561462,  -83.5426254
   3172,    239.91095,   85.0704575
   3173,   196.191025,   -85.544754
   3174,   196.139008,   86.9162827
   3175,   170.624557,   85.0366364
   3176,   169.738922,  -86.5379715
   3177,   134.414948,    80.426918
   3178,   136.008972,  -79.9104156
   3179,   155.009369,   37.0291328
   3180,   152.185516,  -38.8006973
   3181,   150.308044,   39.1157837
   3182,   154.560364,  -86.4698868
   3183,   155.811249,   86.7975388
   3184,   212.424515,   85.7786865
   3185,   211.556488,  -83.9222412
   3186,   141.254776,   68.4121933
   3187,   244.807358,  -85.8780136
   3188,   202.423492,  -86.1055832
   3189,   202.895584,   86.6270218
   3190,   165.244217,    85.984787
   3191,   144.886185,  -55.0235367
   3192,   158.587509,  -85.2041779
   3193,   148.343704,   55.9017296
   3194,   146.444458,   50.8551674
   3195,   206.758362,  -85.0502548
   3196,   162.806641,  -86.1611938
   3197,   160.422485,   86.4978027
   3198,   142.534561,  -65.9836884
   3199,   144.954239,  -61.2135735
   3200,   157.074295,   13.2169371
   3201,   138.477432,    -75.15979
   3202,   162.665604,  -83.8458099
   3203,   165.048538,  -86.1364822
   3204,   148.097855,  -55.4440765
   3205,   157.732971,  -15.2938766
   3206,   159.730179,   12.9062195
   3207,   156.492783,   34.1775284
   3208,   156.641769,  -84.4240799
   3209,    157.23262,   16.3137932
   3210,   238.519714,   58.1675873
   3211,   239.636246,  -59.3078003
   3212,   239.738129,  -4.76143932
   3213,   239.805756,   2.46980095
   3214,    240.27536,  -67.3773804
   3215,   239.504944,   65.4329147
   3216,   241.187347,   54.9138794
   3217,   240.663788,  -54.3738861
   3218,   241.104294,  -6.57457924
   3219,   241.091064,   8.47682762
   3220,   240.896606,  -71.2915115
   3221,   239.032928,   70.2686234
   3222,   152.112137,   47.4087868
   3223,   233.049286,   84.3645935
   3224,   232.962967,  -83.8466339
   3225,   190.036072,   82.3135834
   3226,   190.501251,  -84.0829697
   3227,   176.341721,   -83.870842
   3228,    177.95903,   83.9202499
   3229,   147.545929,   82.5373001
   3230,   147.271057,  -84.0175934
   3231,   219.715027,  -85.3951263
   3232,   221.826691,   82.5114136
   3233,   237.422409,   84.7202759
   3234,   237.148468,  -83.7061157
   3235,   242.430725,   86.4234848
   3236,   194.633072,   84.6473618
   3237,   194.413361,  -84.8316498
   3238,   167.356079,  -86.3593521
   3239,   171.906769,  -84.3066711
   3240,   172.395767,   82.9489365
   3241,   131.246033,   81.3126297
   3242,   132.279694,  -81.6243057
   3243,   154.678024,  -39.2287636
   3244,   153.800415,   39.6644821
   3245,   153.961975,   84.7171631
   3246,   152.549942,  -84.3665695
   3247,   158.090622,   86.6791534
   3248,   213.576294,  -84.2885361
   3249,   214.327362,   82.9880447
   3250,   208.823105,  -85.7421036
   3251,   209.924286,   85.8756714
   3252,    153.02951,   32.6221809
   3253,   139.085007,   67.5547714
   3254,   143.457794,   69.2200546
   3255,   200.605255,    84.731163
   3256,   200.432388,  -84.1205063
   3257,    205.27153,   86.2737579
   3258,   167.390045,    83.019104
   3259,    141.48291,  -68.3130875
   3260,    241.11702,   50.7227669
   3261,   241.710464,   -50.480648
   3262,    241.18425,  -11.0527973
   3263,   239.824875,   12.5786905
   3264,   241.146362,  -75.2983017
   3265,   239.877579,   75.7110977
   3266,   136.068695,  -74.3605423
   3267,   155.560898,  -34.4030762
   3268,   133.751099,   86.6446381
   3269,   147.076965,  -62.2867317
   3270,   242.107864,  -83.2975616
   3271,   157.811569,   25.3429737
   3272,     161.8564,   7.71994877
   3273,   152.217239,   40.9109268
   3274,   161.727966,  -8.56152153
   3275,   146.387848,   -58.599968
   3276,   146.707504,   57.7181511
   3277,   157.523788,   29.9042664
   3278,   151.665482,  -41.2359085
   3279,   145.794296,  -64.5830383
   3280,   198.620209,   82.7205658
   3281,    166.97702,   80.4798508
   3282,   199.026031,  -82.0767288
   3283,   145.697357,   69.9225311
   3284,   213.907074,  -82.0358963
   3285,     213.3302,   81.0008698
   3286,   151.609314,   81.7035904
   3287,   152.275803,  -82.0743484
   3288,   173.747299,  -81.9651947
   3289,   173.420486,   81.6885681
   3290,    194.25209,   81.7108383
   3291,   132.894608,   82.2058334
   3292,   235.221237,   82.2511215
   3293,   236.832336,  -81.3006134
   3294,   220.357727,   -82.637207
   3295,   220.953705,   79.0947495
   3296,   146.361511,   81.5297394
   3297,   149.138824,  -83.1821594
   3298,   156.929047,  -82.0442886
   3299,   177.620544,  -81.1219101
   3300,    176.22934,   81.8425522
   3301,   188.813034,     81.14505
   3302,   189.068039,  -81.4135742
   3303,   241.877136,  -80.4284134
   3304,   231.421173,   82.1161652
   3305,   232.550217,  -81.6143494
   3306,   237.010498,   71.1871872
   3307,   238.998566,   7.52271318
   3308,   238.185593,  -54.7350502
   3309,   135.823654,   84.3452072
   3310,   142.207779,   66.1209564
   3311,   145.374664,   59.7183266
   3312,   156.319061,  -17.8241196
   3313,   157.440796,   36.3958931
   3314,   155.717102,   18.7362919
   3315,   237.338257,   66.3858566
   3316,   238.251602,  -65.4085007
   3317,   237.846985,   3.26634932
   3318,   238.359238,  -3.34644771
   3319,   236.429276,  -59.0278587
   3320,   237.617798,   59.7407379
   3321,   151.218384,  -53.8535004
   3322,   143.674225,  -69.0708847
   3323,   241.394241,  -61.1293526
   3324,   239.580307,   60.8074036
   3325,   240.077789,  -1.94422698
   3326,   241.122879,  0.380573332
   3327,   241.393311,   -64.590744
   3328,   240.845444,   63.1101952
   3329,    151.77919,   49.5190926
   3330,   230.708237,   86.1395874
   3331,   231.422256,  -83.8347549
   3332,   188.325714,   84.3492813
   3333,   188.337341,  -83.6622772
   3334,    179.40152,  -85.6241379
   3335,   180.258804,    85.797699
   3336,   145.892822,   84.5933685
   3337,   144.431015,  -84.7121124
   3338,   221.705276,  -87.0381165
   3339,   223.205856,   85.6506653
   3340,   241.734467,   88.8135223
   3341,   210.022079,   88.4169769
   3342,   167.357269,  -88.7520142
   3343,   157.905609,   88.9321747
   3344,   208.105392,  -88.2479858
   3345,   239.654648,   82.5803909
   3346,   192.983536,   84.0289536
   3347,   174.103287,  -84.1729202
   3348,    167.48613,  -84.0191956
   3349,   150.409241,   84.0490417
   3350,   215.713425,  -84.4364548
   3351,   158.204681,   84.4276581
   3352,   209.949478,   83.3715668
   3353,   209.510529,  -83.3466263
   3354,   142.496979,   71.6642838
   3355,         205.,    83.854454
   3356,   240.893219,   48.6218452
   3357,   243.625732,  -49.3486252
   3358,   240.973572,  -13.1979952
   3359,    241.29158,   14.2284384
   3360,   242.804474,  -77.8203125
   3361,   242.478546,    78.393425
   3362,   163.411133,  -81.0228348
   3363,    163.08046,  -12.5043125
   3364,   162.328094,   12.4618597
   3365,   155.431244,   22.9262352
   3366,   148.593887,  -59.9438362
   3367,   159.919708,   27.9597473
   3368,   135.022095,  -81.8294907
   3369,   153.101242,   43.6744919
   3370,   204.782959,  -84.1602783
   3371,   162.768402,   83.8862457
   3372,   242.867783,   80.2232208
   3373,   241.187119,   17.7081833
   3374,   242.559158,  -17.8969193
   3375,   243.011673,  -47.0424767
   3376,   242.634323,   44.1731186
   3377,   157.914978,  -18.6878433
   3378,   142.847885,  -71.4277802
   3379,   145.815231,  -69.7594604
   3380,   244.996384,    60.450016
   3381,   245.231781,  -1.84235108
   3382,   200.522202,   80.5769424
   3383,   164.827942,   81.0224152
   3384,   201.260208,  -80.6622543
   3385,   146.529068,   67.6392365
   3386,   212.550003,  -79.9473267
   3387,    212.05867,   81.9495468
   3388,   153.834839,   80.7537613
   3389,   154.475021,  -81.7544632
   3390,   171.378769,  -79.3994675
   3391,   168.991837,   79.8080292
   3392,   197.291016,  -81.1139069
   3393,   196.549835,   80.8189545
   3394,   246.094574,   75.5836945
   3395,   244.835541,   13.2713528
   3396,   245.777496,  -48.8253784
   3397,   239.543839,   79.9903641
   3398,    238.66539,    -78.97258
   3399,   159.493088,   10.3556423
   3400,   216.833923,  -81.4071121
   3401,   217.898514,   80.1231308
   3402,   149.191849,  -80.8416138
   3403,   149.039124,   80.3551331
   3404,   176.803986,  -79.2435837
   3405,   174.665604,   79.8852844
   3406,   191.674622,   80.2118301
   3407,   193.121185,  -82.0769424
   3408,   234.602615,   -81.311676
   3409,   235.118362,    79.982193
   3410,   140.097107,   65.2564163
   3411,   148.507187,   59.1924477
   3412,    141.39679,    74.137764
   3413,   154.612228,   40.9785309
   3414,   159.197723,   33.0274582
   3415,    157.11145,   20.1957436
   3416,   236.233444,   69.3410492
   3417,   235.533783,  -67.7609406
   3418,   236.143265,   4.37786913
   3419,   236.985641,  -5.10253048
   3420,     236.4272,  -56.6014061
   3421,    236.83931,   56.1989899
   3422,   136.613113,  -82.6597137
   3423,   152.728745,  -56.0461159
   3424,    207.55925,   85.9091263
   3425,   135.149612,  -83.5600967
   3426,   164.300766,  -14.1842546
   3427,   162.840103,   14.7461081
   3428,   153.593018,  -19.9976902
   3429,   153.153458,   20.5335045
   3430,   203.267212,  -81.2401428
   3431,   162.635574,   81.4620361
   3432,   140.265335,   85.6142349
   3433,   182.611755,   85.2088013
   3434,   185.274429,  -85.5263672
   3435,   155.900757,    42.934124
   3436,   237.740707,  -52.6940384
   3437,   238.006744,      73.1987
   3438,   237.411469,   11.2626867
   3439,   227.509064,  -84.9440231
   3440,   158.157516,   22.6122742
   3441,   153.593613,   18.1505413
   3442,    147.28093,     60.97575
   3443,   162.409943,   79.0516357
   3444,   203.758408,  -78.8544922
   3445,   150.263153,   60.5501709
   3446,   139.049286,   62.0694542
   3447,   245.569931,   79.9261932
   3448,   240.386246,  -78.7954636
   3449,    244.70079,   18.9067078
   3450,   240.613937,   -15.375289
   3451,   245.215317,  -44.0426903
   3452,   240.593552,   46.5216026
   3453,   198.516693,   84.8623886
   3454,   235.177826,   84.5321045
   3455,   160.616806,   23.6282997
   3456,   146.756851,  -67.7125549
   3457,    198.59938,   80.4948578
   3458,   204.252121,   82.1951752
   3459,   166.606873,   77.9745712
   3460,   147.979492,    70.505867
   3461,   145.189346,   64.7890778
   3462,   214.485016,  -79.3690491
   3463,   210.177612,  -81.0671387
   3464,   210.609985,   81.2689362
   3465,   156.107544,   82.4166794
   3466,   151.277924,    79.478302
   3467,   151.547409,   -79.880806
   3468,   172.531906,   -77.584053
   3469,   167.963852,  -82.2537003
   3470,   170.912216,   79.0717163
   3471,   193.957626,    79.422226
   3472,   194.526566,  -78.9009857
   3473,   237.439377,   79.9981461
   3474,   241.356216,   80.6682053
   3475,    236.76329,  -77.2825623
   3476,   218.746582,  -79.7311325
   3477,   222.288666,   76.9370651
   3478,    147.01506,   79.0281372
   3479,   178.191971,  -78.3389206
   3480,    176.47438,   79.3488846
   3481,   189.686005,   78.4194412
   3482,   189.842209,  -79.4052505
   3483,   232.540482,   80.1564789
   3484,    231.83432,   -79.234314
   3485,   244.905991,  -60.2509422
   3486,   244.476868,  0.794123709
   3487,    244.30722,   63.2531662
   3488,   158.113312,   38.7105293
   3489,    155.54335,   32.1470222
   3490,   158.926819,     18.77034
   3491,   235.284775,   67.4954529
   3492,   238.218674,  -69.6864243
   3493,   235.718277,  -65.1215591
   3494,   234.514252,   2.63251781
   3495,   235.244812,  -4.01202536
   3496,   238.725159,  -7.20645618
   3497,   233.266174,  -58.6206551
   3498,    239.04953,   54.6801529
   3499,   234.624359,   59.6468658
   3500,   165.146362,  -11.2448997
   3501,   164.060928,   -17.387743
   3502,   162.166443,   19.8239994
   3503,   164.822281,   12.0188065
   3504,   156.223663,   41.0237961
   3505,   235.608398,  -53.2097511
   3506,   238.710052,  -50.0462685
   3507,   237.783478,   75.6016159
   3508,    234.27301,   70.3163834
   3509,   237.832306,    13.369628
   3510,   236.338654,   7.10882759
   3511,   141.798096,   82.4414978
   3512,   182.335876,  -84.7316818
   3513,   184.932892,    84.265007
   3514,   164.396194,   -79.494545
   3515,   143.865524,   75.4177704
   3516,   147.871109,  -65.6407928
   3517,   157.416138,  -37.0911217
   3518,   159.432571,   -80.105072
   3519,   140.604553,    87.995575
   3520,   184.104309,   81.9015884
   3521,   184.009476,  -82.0477829
   3522,   148.882217,   51.1207085
   3523,   153.587875,   -44.174881
   3524,   226.018112,  -82.8997955
   3525,   162.133102,   28.2053299
   3526,   155.945053,  -32.0803947
   3527,   161.760544,  -6.40485477
   3528,   162.224258,  -10.6410456
   3529,   182.994415,    87.701004
   3530,   182.375473,  -87.9879761
   3531,   161.779572,   5.33320618
   3532,   164.507675,   9.79543972
   3533,   225.720215,  -85.9725571
   3534,   157.093536,  -79.5385361
   3535,   227.786087,    86.525383
   3536,   140.042679,    76.400444
   3537,   236.340744,   61.2741241
   3538,   235.960159,  -61.8782959
   3539,   236.806305,  -1.97708142
   3540,   245.306473,  -75.7384262
   3541,   245.507111,  -13.6108618
   3542,    245.51738,   48.4685364
   3543,     142.2099,  -74.1384354
   3544,   150.638702,  -61.5021095
   3545,   147.124969,  -72.1899338
   3546,   242.310791,   84.7477264
   3547,   150.498016,  -46.2279434
   3548,    157.14743,  -39.4708786
   3549,    242.28331,   42.3874435
   3550,   242.165558,  -19.7088432
   3551,   142.193375,   60.7528763
   3552,    156.06662,  -44.8598709
   3553,   152.444443,  -48.9373589
   3554,   237.912811,   44.7523766
   3555,   237.772476,  -17.0392914
   3556,   162.073792,   76.6931992
   3557,   204.217697,  -76.4154282
   3558,   160.407135,    81.833046
   3559,   206.020905,  -79.5603027
   3560,   151.299057,   59.0367584
   3561,   155.893097,  -29.3536625
   3562,   162.552872,   26.0045738
   3563,   147.866425,  -70.5362473
   3564,   160.750763,   38.4593391
   3565,   203.922211,   78.1059875
   3566,   155.951508,   80.2444839
   3567,   168.637405,  -77.6075745
   3568,   223.200333,  -79.7381973
   3569,   222.939163,   80.0959778
   3570,   145.415604,   80.0011673
   3571,    144.78009,  -81.3606415
   3572,   179.301117,   -80.139534
   3573,   187.889099,     79.47229
   3574,   229.421524,   81.7168884
   3575,   235.475464,  -70.5016327
   3576,     236.1521,  -7.42730665
   3577,   236.905762,   54.5770912
   3578,   163.561523,   16.9702702
   3579,   139.264694,   80.9657898
   3580,   244.765259,   -80.727356
   3581,   140.808167,   -77.614769
   3582,   166.220917,   75.4707336
   3583,   199.019897,   -76.272995
   3584,   161.146606,  -80.3503952
   3585,   166.644775,  -80.5160675
   3586,   146.628006,   75.2977524
   3587,   142.582092,   84.6669769
   3588,   181.519302,   80.6047287
   3589,   186.381622,  -77.6283569
   3590,   224.560684,  -83.9227142
   3591,   227.280548,  -81.2035751
   3592,   158.021591,  -34.7982216
   3593,   163.527328,  -8.28060818
   3594,   161.748856,  -4.13847685
   3595,   164.333466,   7.52997494
   3596,   161.743088,   2.96323395
   3597,   215.454529,   76.1779709
   3598,   151.925781,  -76.4932404
   3599,   141.834229,   77.4596024
   3600,   236.158951,   64.4542923
   3601,   236.513245,   1.31259632
   3602,   172.657104,    76.404953
   3603,   194.038788,  -75.9113007
   3604,   145.559021,  -76.1139908
   3605,    146.14183,   62.8448715
   3606,    157.33374,   -42.265049
   3607,    238.43483,   -76.535881
   3608,   135.974365,  -85.2086945
   3609,   242.743362,  -44.4575615
   3610,   242.459381,     19.67066
   3611,   210.279343,   78.8225937
   3612,   219.872009,  -77.0513611
   3613,   220.691925,   75.7134171
   3614,   146.601318,   77.5594025
   3615,   146.686447,   -78.278511
   3616,   182.265457,  -80.4872131
   3617,    186.06369,   80.7078247
   3618,   152.545944,  -63.0917702
   3619,   137.874969,   75.6270752
   3620,   179.456955,  -77.1480942
   3621,   178.205704,   77.6424713
   3622,   189.119186,   76.5388565
   3623,   189.021759,  -76.7371826
   3624,   158.350616,   43.8011589
   3625,    235.58313,   75.4380875
   3626,   235.240799,   11.2673492
   3627,    235.18335,  -49.3243561
   3628,    232.94075,   77.4492493
   3629,   230.882065,  -76.9122314
   3630,   166.017517,    -18.71978
   3631,   147.978058,   63.9425392
   3632,   161.981262,   30.4208965
   3633,   226.614334,   84.1800232
   3634,   150.282974,   71.1239319
   3635,   225.717133,   88.1615906
   3636,   143.169815,  -76.8488235
   3637,   152.114319,   61.7216263
   3638,   140.475769,  -75.6870575
   3639,   240.322678,  -44.8572693
   3640,   239.421127,   19.3091946
   3641,   240.142151,  -42.2422295
   3642,   240.654984,   20.7584209
   3643,   183.384644,   79.6539078
   3644,   183.624664,  -78.5241241
   3645,   236.978073,   52.8446541
   3646,   236.757645,   -10.527792
   3647,   236.976517,  -72.0923386
   3648,   237.178268,   -49.340519
   3649,   235.221146,   13.4636469
   3650,   237.593658,   77.8629532
   3651,   162.615265,  -19.2728386
   3652,   159.307816,  -4.31046247
   3653,    234.70697,   54.4328499
   3654,   232.634033,  -7.89025354
   3655,   232.226547,  -70.1061478
   3656,     159.2939,   2.94351673
   3657,   232.561676,   12.9396477
   3658,   232.948456,  -49.4923592
   3659,   233.462479,   74.8706589
   3660,   167.531281,  -17.0796356
   3661,   152.938278,   -46.613224
   3662,   166.657623,   18.5319118
   3663,   235.298721,   46.9959602
   3664,     235.6577,  -16.2037029
   3665,   142.883331,   79.2749252
   3666,   141.272247,  -80.3441315
   3667,   224.834381,  -81.0350723
   3668,   225.035431,   80.8781204
   3669,    164.13121,   76.0880432
   3670,   201.542358,  -75.5402985
   3671,   151.615082,   56.4950485
   3672,   157.036377,  -27.0665512
   3673,   162.969528,   23.8760014
   3674,   135.478119,   82.2425919
   3675,   147.172226,   72.8890686
   3676,   179.690674,    81.371109
   3677,    188.01712,  -78.6106949
   3678,    229.58075,  -80.1335907
   3679,   164.177444,  -3.99968696
   3680,   227.228271,   81.4475021
   3681,     217.9646,  -75.5805511
   3682,   217.543411,    75.217308
   3683,   148.793961,   75.5102539
   3684,   148.582581,  -76.6005325
   3685,   151.153748,  -64.9237366
   3686,   154.193375,  -61.4469185
   3687,   177.088638,  -76.7253647
   3688,   174.346176,   76.4320602
   3689,   191.104279,   75.8122025
   3690,   192.185867,  -73.7410889
   3691,   158.069809,   79.8818741
   3692,   208.175919,  -80.3138657
   3693,   208.817368,   80.0695267
   3694,   233.140305,  -75.6857452
   3695,   162.174866,   32.8089867
   3696,   164.165665,   28.4567719
   3697,   166.845688,  -75.2300873
   3698,   225.110733,   86.0142746
   3699,   155.639297,    78.028244
   3700,   209.577179,  -75.8861923
   3701,   210.114105,    76.923378
   3702,   151.103149,    68.871315
   3703,   150.989578,   63.5689774
   3704,   153.026779,   60.0067825
   3705,   204.506744,   76.1812363
   3706,   161.010666,   43.3575516
   3707,   164.212021,   2.92522311
   3708,   162.895203,   35.3726692
   3709,   139.019073,  -85.9246674
   3710,   159.389145,   -39.238533
   3711,   241.586884,   39.8304863
   3712,   241.502487,  -22.3206825
   3713,   166.761169,   7.33533573
   3714,   213.001312,   77.2661285
   3715,   153.404037,  -74.6844788
   3716,   168.298676,   74.8823318
   3717,   196.661163,  -76.2679291
   3718,   236.030396,   45.1685371
   3719,   234.717758,  -17.8678818
   3720,   239.495117,  -75.1199875
   3721,    147.05751,  -73.6970062
   3722,   163.474365,   41.2829628
   3723,   140.647903,   78.8564606
   3724,   160.445007,  -35.5494614
   3725,    244.62973,   85.0043259
   3726,   162.759048,  -76.6720428
   3727,   232.119431,   69.6601715
   3728,   233.335922,  -53.7757874
   3729,   225.941299,   78.5908737
   3730,   226.590057,  -78.5163498
   3731,   161.719482,  -1.77326536
   3732,   161.718307,  0.589687586
   3733,   231.083344,   74.2515182
   3734,   166.372894,  -3.68791294
   3735,   166.690369,    2.8554039
   3736,    242.34346,  -39.3320847
   3737,   243.049179,   23.7337894
   3738,    231.23439,   58.5498962
   3739,   231.947067,  -4.83598089
   3740,   230.653244,  -66.8699036
   3741,    230.68335,   10.2502956
   3742,   232.957458,  -51.6960487
   3743,   232.485382,   71.5496445
   3744,   169.199799,  -15.4995871
   3745,   168.268723,   15.7532282
   3746,   236.033081,   49.2008858
   3747,   236.204239,  -14.3773327
   3748,   139.551437,  -82.6092682
   3749,   161.551361,   74.4098511
   3750,     204.9263,  -74.1360397
   3751,   236.688751,   -74.271904
   3752,   158.931641,  -30.1163101
   3753,   155.454636,    -21.64007
   3754,   161.163193,   22.0976372
   3755,   220.968094,   72.7224731
   3756,    221.08168,  -75.1158981
   3757,   214.600189,  -75.4646988
   3758,   150.874908,   77.4465027
   3759,   178.190308,  -73.2659225
   3760,   178.949493,   74.3479691
   3761,   173.499237,  -76.1719284
   3762,   193.511993,   77.3517914
   3763,   188.868301,   -73.329422
   3764,   188.535339,   74.4801788
   3765,   231.354462,  -73.6240997
   3766,   164.680176,   32.2771111
   3767,   152.905991,   76.5622787
   3768,   211.814545,  -73.7414856
   3769,   201.455627,   75.6370316
   3770,   240.198929,    38.364254
   3771,   240.133392,  -23.7877941
   3772,   214.658035,   73.6757736
   3773,    149.77272,  -74.8080215
   3774,   155.496964,  -76.2277832
   3775,   172.771713,   73.9642029
   3776,   195.220856,  -73.2787933
   3777,   238.057236,   39.4540596
   3778,   237.857681,  -22.6338558
   3779,   152.507233,   71.7902908
   3780,   163.882767,   38.3547363
   3781,   205.187729,   80.1473389
   3782,   150.475983,   75.7765961
   3783,   236.612305,   51.0958977
   3784,   236.512085,  -12.4373884
   3785,   163.819763,  -22.3352394
   3786,   152.412613,  -59.6636162
   3787,   231.927902,  -56.6821289
   3788,   230.404236,   69.0343857
   3789,   231.906479,   6.10945511
   3790,   182.648651,    77.452179
   3791,   184.802231,  -76.4940033
   3792,   162.388885,  -36.9562492
   3793,   168.444153,  -75.4064026
   3794,   161.800385,  -33.2984734
   3795,   166.704102,    5.1110878
   3796,   237.947525,  -44.9864502
   3797,   236.953918,   19.4197922
   3798,   154.360733,  -64.6695328
   3799,   158.590378,  -75.1560593
   3800,   165.064835,  -74.8952179
   3801,   152.172897,   57.9422035
   3802,   169.205521,   9.17787075
   3803,   165.684036,   72.8709106
   3804,   199.745987,   -73.535675
   3805,   154.609863,  -49.5591393
   3806,   166.066513,   29.2834682
   3807,   158.296295,  -45.9218178
   3808,   210.067505,   74.2711792
   3809,   235.643082,  -45.1005745
   3810,   235.125473,    15.861867
   3811,   232.376251,   53.4111595
   3812,   230.025024,  -71.6975098
   3813,   232.252365,   -10.557579
   3814,   167.952011,  -19.8940525
   3815,     167.4319,   20.7100334
   3816,   230.940628,  -47.2438889
   3817,   229.533432,   14.1509008
   3818,   161.278915,    45.114048
   3819,   229.686768,  -74.8176651
   3820,   166.109344,  -8.36475849
   3821,   242.150772,  -24.0782433
   3822,   242.207748,   38.1105156
   3823,   165.705338,   23.9512749
   3824,   186.770065,  -72.5029831
   3825,   186.487625,   75.4222565
   3826,   179.286896,  -74.3791656
   3827,   179.971375,   76.3916092
   3828,   231.649734,  -17.7979488
   3829,   234.958481,   43.7867012
   3830,   223.391846,  -76.5055084
   3831,   223.580414,   74.8968048
   3832,   154.948486,   60.8213081
   3833,   141.043091,  -84.6136246
   3834,   153.126358,  -66.3550873
   3835,   157.331787,  -64.7792053
   3836,   235.642029,   -43.005928
   3837,   235.147125,   19.2543545
   3838,   153.753845,   54.3564987
   3839,   156.320389,   54.8381958
   3840,   167.902237,   33.3746071
   3841,   210.142685,   71.6253738
   3842,   151.863617,   74.2898178
   3843,    166.88855,  -5.43473482
   3844,   239.737579,  -39.7235069
   3845,   241.567841,   21.9312859
   3846,   244.581879,  -23.7334805
   3847,   244.642319,   38.4770393
   3848,   232.886673,   60.8405418
   3849,   233.327286,  -2.75975966
   3850,   233.215881,  -65.6825333
   3851,   230.048431,   12.2030802
   3852,   230.542389,  -49.5862236
   3853,   166.253387,  -12.7278461
   3854,   169.315109,  -18.3704224
   3855,   167.208984,   11.5852537
   3856,   238.836288,    50.817791
   3857,   238.977112,   -10.890152
   3858,   159.580719,   75.1109543
   3859,   158.824036,  -22.9711132
   3860,   216.273788,  -73.9277115
   3861,   172.759964,  -73.6434479
   3862,   193.044876,   75.2621689
   3863,   155.238342,   75.5536423
   3864,    209.83461,  -73.6782913
   3865,   198.824036,   77.6698532
   3866,   204.993896,   73.3861465
   3867,   165.337357,   -25.029932
   3868,   231.458084,  -59.8262672
   3869,   230.824677,  -54.5200882
   3870,   230.675842,   71.0421677
   3871,   232.177689,   67.1612549
   3872,   232.903671,   4.17738104
   3873,   231.259872,   8.18235207
   3874,   161.011688,  -38.4170151
   3875,   167.030685,  -72.9329987
   3876,   171.511078,  -76.4409332
   3877,   161.664886,   -30.592247
   3878,   163.907074,  -35.4994774
   3879,   163.147476,  -74.4138031
   3880,    169.09903,   7.17693424
   3881,   156.801285,  -50.0268097
   3882,   233.304062,   45.2314186
   3883,   230.191544,  -16.2996616
   3884,   158.247162,   57.5558968
   3885,   207.537903,   74.1002274
   3886,   231.483963,   51.1483955
   3887,   229.441238,   55.5162544
   3888,   229.647614,  -68.5429916
   3889,    232.55545,  -12.1309214
   3890,    230.71843,  -6.74551105
   3891,   168.104324,    -23.91749
   3892,   169.006348,   17.8368263
   3893,    233.45575,  -45.1965637
   3894,   231.224075,   16.8957233
   3895,   163.307114,   43.6536407
   3896,     159.3815,   48.7353249
   3897,   167.509583,   25.5155621
   3898,   184.533752,   76.4307709
   3899,    180.65007,  -75.7168961
   3900,   160.730286,   72.2550125
   3901,   205.689468,  -71.9685593
   3902,   225.841782,   -76.279335
   3903,   154.752991,  -72.7606201
   3904,   236.835907,   37.2577019
   3905,   236.868637,  -24.8630104
   3906,   157.052231,   61.6677933
   3907,   200.745743,  -71.7626953
   3908,   164.864212,   70.1879578
   3909,   227.048355,  -73.9660187
   3910,   184.259323,  -73.3162003
   3911,   183.783432,   74.2475281
   3912,    225.14743,    75.715004
   3913,   226.838165,   76.4194031
   3914,    169.12941,   30.3683777
   3915,   168.216721,   22.7875977
   3916,   152.007416,   66.7110748
   3917,   159.389832,  -44.1195297
   3918,   234.191483,  -13.8863382
   3919,    233.67305,   50.1078224
   3920,   233.603516,  -43.2330132
   3921,   233.380386,   17.9482479
   3922,   169.142761,   2.78053951
   3923,   166.251816,    39.592659
   3924,    222.14061,   71.6802979
   3925,   154.995621,  -54.7742424
   3926,   167.619186,  -25.5989361
   3927,   185.203262,  -71.2862549
   3928,   183.003662,   72.0591431
   3929,   236.026901,  -26.9654884
   3930,   236.102646,   35.1515465
   3931,   195.570099,   76.5247803
   3932,   192.879791,   73.1378555
   3933,   173.346848,  -71.8855667
   3934,   214.828354,  -72.4269409
   3935,   156.095078,  -70.8788605
   3936,   230.600418,   49.3880081
   3937,   231.784241,  -15.1262121
   3938,    139.86348,  -88.2015839
   3939,   158.853256,   -63.720253
   3940,   212.232742,   71.5599747
   3941,   168.821075,  -1.88571632
   3942,   169.513931,  -12.4467802
   3943,   163.073563,  -24.3228111
   3944,    229.86235,  -57.9522934
   3945,    228.93399,   67.3163986
   3946,   229.734818,   5.22147417
   3947,   164.018494,  -30.5611801
   3948,   156.565506,  -52.1535797
   3949,   229.326691,   51.7810478
   3950,   231.115326,  -12.2407503
   3951,   161.269943,   47.7232513
   3952,   162.725891,   71.2429352
   3953,   203.618729,  -70.8630676
   3954,   156.240234,   63.6595802
   3955,   225.876556,  -72.8048401
   3956,   225.787674,    70.751915
   3957,    231.72171,  -43.2632484
   3958,   232.207245,   19.8137741
   3959,   168.256622,    28.850008
   3960,   160.893188,  -23.6197262
   3961,   149.498016,   65.6440048
   3962,   168.530014,  -7.23149347
   3963,   160.871155,   -45.284832
   3964,   151.987823,  -68.1275558
   3965,   171.576645,   2.75792551
   3966,   166.616135,  0.579116821
   3967,   207.188828,  -75.0678558
   3968,   157.589661,   75.6106644
   3969,    156.70163,  -56.6798706
   3970,   199.238525,   73.6402664
   3971,   225.551331,  -74.3309784
   3972,   227.848862,  -75.7503052
   3973,   165.787643,   44.6729126
   3974,   164.075592,  -38.7141228
   3975,   167.680725,   42.1181183
   3976,   220.144302,    71.021759
   3977,   221.889542,   70.1959457
   3978,    169.91745,   13.1252518
   3979,   231.464218,  -65.2735519
   3980,   229.916824,  -3.77656937
   3981,   229.395935,   60.6268768
   3982,   228.921448,   16.0749989
   3983,   231.348801,  -45.1463127
   3984,   168.811798,  -22.4309692
   3985,    205.42543,   70.3294144
   3986,   211.371841,  -71.1250763
   3987,   156.254761,   73.2173157
   3988,   242.120544,   36.0857773
   3989,   242.063126,  -26.1247959
   3990,   227.417572,   7.12334681
   3991,   171.366348,   17.0575447
   3992,   167.399963,   69.2361526
   3993,   198.834473,  -70.6376953
   3994,   171.359772,   7.15197229
   3995,   228.224426,  -70.0812454
   3996,    227.17746,   55.0896339
   3997,   227.866013,  -8.46492195
   3998,   167.379456,  -70.5417099
   3999,   159.068649,   53.3761101
   4000,    157.58609,  -67.1618042
   4001,   228.732025,  -11.6357079
   4002,   227.652985,   52.2508087
   4003,    227.34613,  -44.3724709
   4004,   228.106476,   17.9484062
   4005,   171.199402,  -21.9759407
   4006,   162.472595,   49.7332764
   4007,   164.664032,   48.4798965
   4008,   230.310089,   2.43070841
   4009,   229.785568,  -61.2293282
   4010,   230.770386,   65.6268921
   4011,   227.159302,   2.72256112
   4012,   228.174667,   -59.686367
   4013,   227.391769,   65.7681732
   4014,   164.294388,  -28.6729336
   4015,   162.225784,   -40.022583
   4016,   166.432159,  -29.2668762
   4017,    230.96582,  -40.9183769
   4018,   233.332855,   22.5648537
   4019,   167.218155,  -38.7005119
   4020,   167.639542,  -27.6255646
   4021,   231.083725,   62.3283615
   4022,   231.233765,  -1.51205659
   4023,   232.577728,  -64.1508713
   4024,   169.483093,   11.1349993
   4025,   227.538284,   59.2592659
   4026,   227.775589,  -2.84709311
   4027,   228.667389,  -65.6504288
   4028,   171.386017,  -10.2094488
   4029,   171.981766,    12.517807
   4030,   149.936295,  -66.8317337
   4031,   186.464447,  -69.1002731
   4032,   182.212341,   69.8479919
   4033,   238.804001,  -28.3472347
   4034,   238.891098,    33.846981
   4035,   190.137573,    71.498848
   4036,   218.841415,  -69.8709259
   4037,   154.044128,  -69.5024643
   4038,   156.132538,  -60.0012512
   4039,   159.679596,  -65.2399521
   4040,     214.1772,   71.2885513
   4041,   210.252182,    69.193306
   4042,   166.478271,  -1.63172245
   4043,   157.339981,   48.6844978
   4044,   161.474869,    69.100853
   4045,   204.474594,  -68.7569199
   4046,   200.547256,   72.1055908
   4047,   197.420486,   75.2417526
   4048,   163.493347,  -41.8467789
   4049,   171.561523,   5.04971266
   4050,   158.366135,  -58.7169914
   4051,   171.141922,   39.9239578
   4052,   219.494156,    69.085701
   4053,   202.683014,   70.0302048
   4054,   212.158234,  -69.1215744
   4055,   154.560577,   72.3993073
   4056,   166.077576,    66.856514
   4057,   170.030548,   69.5171509
   4058,   201.540817,  -69.7110825
   4059,   196.278503,  -71.3156509
   4060,   157.067078,   50.6519012
   4061,   158.707809,   55.5176811
   4062,   157.613541,  -69.0117493
   4063,   226.676926,   56.6352882
   4064,   225.619049,  -65.8201599
   4065,   226.641647,  -5.20293856
   4066,   173.823807,   16.0520916
   4067,    227.20047,  -52.2905235
   4068,   226.071808,   9.38554859
   4069,   226.210709,  -68.6636429
   4070,   177.102997,  -71.1780396
   4071,   225.663635,   53.1219711
   4072,   226.720306,  -10.5112467
   4073,   172.201126,   19.1268311
   4074,   224.940308,  -55.6470795
   4075,   227.170044,   68.9693069
   4076,   225.104462,   5.35168648
   4077,   173.744202,   10.2570372
   4078,   170.166595,   32.0890617
   4079,   166.961761,   47.5182991
   4080,   226.240509,   73.6256256
   4081,   241.926071,  -28.2273521
   4082,   242.004364,   34.0274162
   4083,   169.072708,   24.6299858
   4084,   170.174377,  -70.1861115
   4085,   163.666641,  -70.1232834
   4086,   158.939011,  -54.9705849
   4087,   171.318817,    28.758976
   4088,   171.472519,   0.30810684
   4089,   152.808853,  -71.3215561
   4090,   169.813309,  -4.88470793
   4091,   171.420425,  -2.56496191
   4092,   165.839249,  -34.2946129
   4093,   163.454269,  -72.2421646
   4094,   169.413284,  -29.4196148
   4095,   159.647812,  -60.9136467
   4096,   230.387314,  -13.4831896
   4097,   228.474777,   50.2521286
   4098,   226.687866,  -46.4078217
   4099,   229.967163,  -42.8369751
   4100,   230.211884,   18.8734741
   4101,   226.710373,   15.4300718
   4102,    170.21138,  -24.5755806
   4103,   173.144226,  -21.4365311
   4104,   155.414368,   70.5666885
   4105,   232.837219,  -39.1179123
   4106,    235.34523,   22.8912067
   4107,    167.38089,  -35.9366913
   4108,   174.208374,  -13.9440699
   4109,   188.674759,  -70.9263229
   4110,   182.663544,  -67.1119843
   4111,   177.868317,   72.2164841
   4112,   184.352753,   68.8846817
   4113,   236.641693,  -30.1973743
   4114,   236.734833,   31.9110222
   4115,    187.92038,   72.3425751
   4116,    192.44577,   70.8036957
   4117,   213.987823,  -69.9274673
   4118,   221.290909,  -71.3933945
   4119,   208.409637,   69.2181778
   4120,   213.981461,   68.9948807
   4121,   159.627701,   70.3835678
   4122,   206.518646,  -69.9261169
   4123,    162.47348,   -44.591732
   4124,   174.032181,   2.78881311
   4125,   204.902679,   67.5853271
   4126,   209.429947,  -69.4162445
   4127,   170.031982,   67.7467651
   4128,   197.294479,  -70.0319061
   4129,   154.408707,    50.016964
   4130,   228.159515,  -49.3396988
   4131,   225.391434,   11.6582661
   4132,   178.692856,  -71.7887497
   4133,    172.31813,  -69.6232147
   4134,   230.777176,   77.1435776
   4135,   225.215927,     54.72789
   4136,    225.53096,  -7.56759596
   4137,   174.643326,   18.1908855
   4138,   224.519577,  -53.5925522
   4139,   224.068115,    69.690239
   4140,   225.540421,   7.42183971
   4141,   171.333633,   33.8543282
   4142,   173.582718,   7.88974857
   4143,   216.041443,   70.7753754
   4144,   169.048157,   44.1023216
   4145,   171.339798,   24.1923275
   4146,   159.461411,  -70.9391861
   4147,   168.556778,  -68.8799973
   4148,   171.648102,   26.3069115
   4149,   161.494003,  -53.8985252
   4150,    172.80867,  -4.84923172
   4151,   166.524765,  -31.6905499
   4152,   175.513809,   31.4976387
   4153,   171.204224,  -7.60838318
   4154,   150.855042,  -69.9388046
   4155,   200.061142,  -66.4536667
   4156,    165.63652,   64.9859695
   4157,   199.800018,    69.600174
   4158,   160.838882,   65.7327194
   4159,   205.415009,  -66.7343674
   4160,   224.869461,  -70.1571808
   4161,    210.19783,   66.7547684
   4162,   193.587082,  -71.8270416
   4163,   172.516342,   71.4486847
   4164,   165.792267,   50.7867012
   4165,   226.654465,  -61.4651756
   4166,   226.401184,  0.349865049
   4167,   225.800491,   64.2136459
   4168,   231.458405,   46.6189156
   4169,   228.793472,  -14.6818619
   4170,   192.062866,  -70.2798233
   4171,   174.760544,   70.8302155
   4172,   196.766556,  -68.0173035
   4173,   171.450012,   66.5428314
   4174,   214.264816,   66.7863083
   4175,   206.881241,   68.9480972
   4176,   156.643219,  -74.1408539
   4177,   208.418793,  -71.0248108
   4178,   157.487015,   71.2862167
   4179,    224.97525,   18.7735748
   4180,   172.530594,  -18.2637177
   4181,   173.039413,  -23.7328739
   4182,   233.486786,  -41.3042984
   4183,   230.368546,  -38.1030807
   4184,   237.010208,    22.641161
   4185,   232.787338,   24.6250687
   4186,    168.61879,  -39.5441742
   4187,   175.297653,  -11.1116676
   4188,   234.757996,  -28.8404617
   4189,   234.942932,   33.2166023
   4190,   165.149139,   53.9211464
   4191,   200.681015,   66.7378235
   4192,   160.619171,  -50.6297798
   4193,    174.04837,  -1.83701229
   4194,   174.522141,   29.7752228
   4195,   173.520874,  -6.99369574
   4196,   196.557373,   69.9228745
   4197,   163.928482,   64.5651855
   4198,   203.218704,  -65.4443588
   4199,   212.165756,   66.6284027
   4200,   167.854538,   50.0478401
   4201,   166.820938,    52.917881
   4202,   225.092422,   -60.310524
   4203,    224.48587,   3.23091435
   4204,   223.732666,   66.0596695
   4205,   222.488068,  -68.4698944
   4206,   177.619202,  -69.1380081
   4207,    161.85643,  -60.2176819
   4208,   173.889786,   23.6718597
   4209,   189.492371,   69.2796631
   4210,   244.515289,   -28.573122
   4211,   244.605331,   33.7109375
   4212,   172.400742,   -29.890892
   4213,   161.486816,  -71.7180939
   4214,   188.635986,  -68.8827744
   4215,   179.253021,   68.5818863
   4216,   236.078125,  -33.2762794
   4217,   236.289291,   28.7410393
   4218,   173.547592,   11.9048347
   4219,   231.626343,   43.5881882
   4220,   230.015884,  -19.1062107
   4221,   176.384033,   22.7570324
   4222,   161.973328,  -70.0524139
   4223,   178.440964,   66.0787277
   4224,   188.907745,  -66.7020569
   4225,   179.373764,  -70.0090408
   4226,   178.195587,  -67.1822662
   4227,   166.438431,   55.8533936
   4228,   187.253601,   70.1656952
   4229,   188.718658,   67.0723877
   4230,   197.823822,  -65.4393616
   4231,   169.582535,   65.5294571
   4232,   227.111496,   19.8482494
   4233,   175.716476,  -17.9242115
   4234,   172.530258,  -25.7679462
   4235,   168.628754,  -40.9176102
   4236,   163.365158,    55.002224
   4237,   201.867935,   64.6517715
   4238,   162.184174,  -51.7323685
   4239,   162.050293,  -48.7628708
   4240,   161.699432,   63.5473022
   4241,   204.244812,  -63.3452415
   4242,   209.583298,   63.9832993
   4243,   223.867661,  -64.5711136
   4244,   173.051926,   21.3242626
   4245,   170.985153,  -30.9764442
   4246,   233.137299,  -27.8579102
   4247,    233.49765,   34.0813713
   4248,   239.121857,  -33.7179756
   4249,   239.473358,   28.5633869
   4250,   178.157394,   11.5126696
   4251,   170.179092,     49.63451
   4252,   236.403519,  -38.3217697
   4253,   237.992508,    23.909256
   4254,   231.217255,  -36.0208511
   4255,   231.925018,    26.818491
   4256,   223.643494,  -59.3920097
   4257,   222.086517,   4.08275127
   4258,   220.738907,   64.6788101
   4259,   165.077835,  -53.8591995
   4260,    167.56459,   57.9843292
   4261,   226.170059,   -41.728714
   4262,   228.292511,   22.8099098
   4263,   177.154938,  -16.3389626
   4264,   166.664001,  -43.1109734
   4265,   177.590057,   24.9863968
   4266,   180.672516,   65.0717316
   4267,   187.565796,   -64.119133
   4268,   176.136566,  -66.3080597
   4269,   168.349167,    54.637001
   4270,   190.837433,   66.1865005
   4271,   195.829269,  -64.3886871
   4272,    172.18895,   64.3161545
   4273,   204.983734,   65.4485016
   4274,   200.498642,   63.1998291
   4275,   163.029861,  -55.4763222
   4276,   164.425217,  -48.2714844
   4277,   158.851669,  -50.4588013
   4278,   158.487518,   64.6170273
   4279,   206.493073,  -64.7421646
   4280,   208.179581,   65.4114609
   4281,   172.552826,  -32.3838387
   4282,   230.907379,  -26.1534538
   4283,   230.525238,   37.0665588
   4284,   237.148117,  -35.1252823
   4285,   241.303696,  -32.6925545
   4286,   237.738937,   27.0313892
   4287,   241.563965,   29.6724625
   4288,   239.302887,   22.2621117
   4289,   235.363388,  -41.0487747
   4290,   172.286087,   46.9054108
   4291,   233.946991,  -34.1750908
   4292,   234.274689,   27.4386501
   4293,   220.735001,  -57.1153526
   4294,   220.118134,   5.48195982
   4295,   221.152847,   66.5213089
   4296,   167.042618,     63.49189
   4297,   200.953125,  -64.1858444
   4298,    214.51001,   64.3386765
   4299,    160.86908,   54.1295509
   4300,   163.664139,  -68.0772247
   4301,     163.0112,  -62.6091614
   4302,   222.418701,  -60.5427475
   4303,    220.64035,   1.86149323
   4304,   221.407852,   62.2109337
   4305,   174.157059,   37.3128662
   4306,    174.64595,    34.381855
   4307,   224.692169,   -12.432147
   4308,   226.188934,   51.2457542
   4309,   172.174805,   44.5348358
   4310,   224.890259,   13.2772789
   4311,   226.104065,  -48.5148277
   4312,    226.89888,  -64.3335648
   4313,   225.458405,  -2.01577234
   4314,   225.972473,   60.9441452
   4315,   222.756088,  -66.0808487
   4316,   163.325195,  -58.0451851
   4317,    185.09024,   71.0932541
   4318,      179.472,   14.7687778
   4319,   163.208771,   57.9964714
   4320,   172.257019,  -68.1306152
   4321,   176.535812,   8.06351185
   4322,    217.09375,  -66.5565414
   4323,   194.464035,   67.3531647
   4324,    156.67981,   45.7951546
   4325,   157.549118,   66.5969238
   4326,   226.270142,  -11.9889183
   4327,   227.683182,   48.7991676
   4328,   164.499115,  -43.8416557
   4329,   216.705231,   64.7326431
   4330,    166.80719,  -67.3046265
   4331,    222.13533,  -63.1458321
   4332,   222.787628,   12.3926439
   4333,   206.685486,    65.230278
   4334,    208.59967,  -66.1875458
   4335,   167.099319,  -51.7516937
   4336,   164.434433,   59.7465401
   4337,   229.210358,  -40.1650543
   4338,   230.465668,    23.800745
   4339,   178.513275,  -21.1478119
   4340,    214.90451,   61.7235146
   4341,   179.853317,   23.5986214
   4342,    176.61528,   28.4538498
   4343,   177.521545,   63.4068146
   4344,   183.606171,   66.6381378
   4345,   185.219299,  -65.7763748
   4346,   190.247391,  -64.0017319
   4347,    176.73735,  -64.3298111
   4348,   189.897751,   63.8979073
   4349,   192.977859,  -64.8971252
   4350,   173.359421,   65.9758682
   4351,   199.572083,  -60.5612717
   4352,    166.33519,   61.0030937
   4353,   203.540131,   63.2187462
   4354,   198.313232,    64.990509
   4355,   170.974686,  -33.6003838
   4356,   234.100662,  -24.0394516
   4357,   231.114059,   35.0559502
   4358,   233.639648,   38.2353058
   4359,   240.038071,  -35.1303368
   4360,   240.553406,   27.2685242
   4361,   172.638229,   49.4321289
   4362,   232.052551,  -32.0259476
   4363,   231.193375,   29.5386677
   4364,   221.429932,  -55.5198021
   4365,    221.31601,   6.98275232
   4366,   161.393616,  -65.4756088
   4367,   220.237045,  -59.0541534
   4368,   218.635162,   3.98234081
   4369,   220.593323, -0.749132693
   4370,    222.77388,   60.8812447
   4371,   172.510056,   38.5389099
   4372,   164.026901,  -59.7151146
   4373,   179.349335,   16.9161034
   4374,   180.415848,   12.4776144
   4375,   222.807831,   48.7187195
   4376,   222.628052,  -13.4643936
   4377,   227.137589,  -15.8451891
   4378,   226.538864,   45.2438545
   4379,    176.62384,   33.2985878
   4380,   172.479965,   42.4771996
   4381,   164.235596,  -65.4816971
   4382,   176.788315,   5.34624767
   4383,   220.316483,  -64.5057678
   4384,    214.70578,  -66.1260834
   4385,   168.238571,  -65.8662186
   4386,   218.744339,   64.8615112
   4387,   163.176514,  -46.3906212
   4388,   172.098923,   60.8439217
   4389,   196.443863,  -62.0667801
   4390,     162.0961,   59.0850677
   4391,   210.158615,   61.2493362
   4392,   181.067184,  -71.0380173
   4393,   157.755463,  -77.2628708
   4394,   175.130844,  -29.6246548
   4395,   227.751541,   -28.453722
   4396,   228.713211,   34.0118294
   4397,   242.429626,   27.7687798
   4398,   242.034256,   -34.739563
   4399,   231.214432,  -23.8250446
   4400,   229.408417,   38.9627304
   4401,   204.942245,   61.3334465
   4402,   220.663651,   11.4305983
   4403,   221.680496,  -50.3330841
   4404,   167.241959,  -49.0009689
   4405,   168.943176,  -54.2691498
   4406,   178.900116,  -17.6108894
   4407,   178.220306,  -22.7255154
   4408,   178.702835,   21.6941166
   4409,   179.502762,   27.2738705
   4410,   182.926315,      64.3125
   4411,    183.96936,  -62.8181572
   4412,   178.812256,  -65.2889404
   4413,    187.89415,   64.8429794
   4414,   230.916885,  -28.8072739
   4415,   231.829926,   33.1361389
   4416,   222.551636,  -54.4482613
   4417,   223.737869,   7.92752934
   4418,   173.143738,  -27.6903858
   4419,    218.64006, -0.650497735
   4420,   219.804642,   61.0290413
   4421,   181.115173,   16.7230034
   4422,     221.2948,   50.3394623
   4423,   221.714722,  -11.5324917
   4424,   180.295166,    31.571434
   4425,   174.800613,   44.6451797
   4426,   176.900879,   2.37693238
   4427,   179.651733,    8.5397377
   4428,   217.282455,  -63.9490089
   4429,   168.567795,  -62.7317238
   4430,   222.998947,  -1.27328086
   4431,   224.286118,   59.4236069
   4432,   170.509537,   58.9775162
   4433,   197.153534,  -59.3881569
   4434,    162.59848,   61.1538353
   4435,   172.517365,  -35.1560135
   4436,   212.561646,   61.3413658
   4437,   203.053589,  -59.7952423
   4438,   207.922516,   60.7171593
   4439,   227.344879,   24.7644444
   4440,   228.032852,  -37.5038795
   4441,    218.45076,   7.17886019
   4442,   220.129807,  -54.6430588
   4443,   177.423752,  -62.5277252
   4444,   191.071625,   60.8108139
   4445,   157.709229,   59.6420135
   4446,   209.864578,  -64.3056488
   4447,   194.024399,  -61.5537415
   4448,    173.76178,   58.9069862
   4449,   182.001694,   22.2962685
   4450,   166.132141,  -58.7522659
   4451,   217.902451,   60.0140686
   4452,   221.984924,  -47.2146912
   4453,   221.865707,   14.4243307
   4454,    221.08551,   59.4185257
   4455,   219.890442,  -2.89179707
   4456,   179.979706,   18.8560295
   4457,   212.089264,  -65.9848785
   4458,   182.062408,   17.9723167
   4459,    217.62709,  -2.15317965
   4460,   225.172318,  -39.1248589
   4461,   225.205902,   23.6231422
   4462,   211.343582,  -62.3119812
   4463,   221.663727,   9.61502743
   4464,   221.501892,  -53.1755333
   4465,   226.382629,  -35.0465851
   4466,   226.255081,   26.6324806
   4467,   224.454865,  -4.34499836
   4468,    225.79425,   58.0175056
   4469,   218.659714,  -53.5643349
   4470,   185.774597,   65.7954788
   4471,   180.776352,  -66.1924362
   4472,   182.614487,   61.6304359
   4473,   184.505203,  -60.7612686
   4474,   225.115005,  -26.0206108
   4475,   225.903061,   35.4573708
   4476,   231.500519,  -21.7308788
   4477,   231.653824,   40.3276367
   4478,   219.600296,    13.364831
   4479,   220.236435,  -48.8419533
   4480,   244.517715,  -34.1002617
   4481,   244.784943,   28.3873425
   4482,   168.277466,  -57.6312103
   4483,   169.729813,  -49.2090607
   4484,   175.891739,  -22.2818871
   4485,    178.62204,  -14.7536316
   4486,     175.1129,   49.2640266
   4487,   221.281799,   47.4589615
   4488,   221.405518,    53.264637
   4489,   221.129211,  -10.0050802
   4490,   179.887863,   29.7456532
   4491,   179.730133,   34.0286903
   4492,   171.744034,   -37.799839
   4493,   182.564697,   28.1314869
   4494,   168.610123,   60.2413788
   4495,   177.181641,   -33.198143
   4496,   200.711746,  -58.1438675
   4497,    205.37088,  -61.2700272
   4498,   210.283722,   58.9106445
   4499,   175.233383,   -60.928566
   4500,   192.697556,   58.0222168
   4501,   194.780869,  -58.8154106
   4502,    190.95401,  -61.0020142
   4503,   172.081299,   57.3327446
   4504,   176.264069,   60.3655472
   4505,   183.332291,    26.456213
   4506,   215.664566,    59.039196
   4507,   220.665726,  -45.5824471
   4508,   220.768631,   16.4478683
   4509,   203.318573,   60.3197327
   4510,   167.316315,  -60.7325363
   4511,   176.548645,  -13.2050228
   4512,   177.579651,   49.0758858
   4513,   169.495895,  -59.7075653
   4514,   233.473434,    42.038662
   4515,   231.600403,  -20.1451569
   4516,   210.524094,  -67.7088776
   4517,   184.060684,   16.4620953
   4518,   215.336502, -0.699799836
   4519,   209.039871,  -60.6399307
   4520,   229.216553,  -33.4196854
   4521,   228.343765,   28.1643047
   4522,   215.224182,   4.64384079
   4523,   217.537491,  -55.3909569
   4524,   242.723282,   25.7433243
   4525,   242.142181,  -36.9789886
   4526,   181.623672,   59.3318787
   4527,   186.804474,  -59.0737419
   4528,   224.825226,   -28.334671
   4529,   228.196457,  -23.6461067
   4530,   226.095383,   33.2895432
   4531,   227.331589,   37.8597832
   4532,   223.066559,   54.6502686
   4533,   222.292847,  -8.55804634
   4534,   181.279526,   32.9248314
   4535,    170.04454,  -38.7798119
   4536,   177.814896,  -30.6882515
   4537,   175.839813,  -35.0914574
   4538,   177.472565,  -59.7577324
   4539,   172.677307,  -60.9928627
   4540,   195.169907,   59.8063507
   4541,   187.939316,   58.9505539
   4542,   185.140259,   22.6551189
   4543,   222.976151,  -43.6379471
   4544,   222.941696,   17.5900936
   4545,   201.600357,   60.2918282
   4546,   206.098923,   59.4168587
   4547,   172.707733,  -48.5805054
   4548,   221.044449,   56.3525581
   4549,   220.262726,  -7.65967846
   4550,   204.313034,  -57.7672272
   4551,   223.452103,  -38.6338921
   4552,   222.964844,   22.6652756
   4553,   180.299667,  -28.8293076
   4554,   182.084518,   31.6262817
   4555,   172.233246,  -39.1509628
   4556,   206.505692,   -59.219841
   4557,   205.648102,  -55.7402954
   4558,   180.477463,  -13.2274923
   4559,   177.459473,   46.7996941
   4560,   174.131592,  -33.7695198
   4561,   182.745697,   13.3980722
   4562,   185.139389,   18.5515709
   4563,   214.621552,   1.68457139
   4564,   214.221909,  -3.13293409
   4565,   211.996063,  -57.6419067
   4566,   226.795044,  -32.9757271
   4567,   226.391022,   30.4986591
   4568,   214.173004,   9.02002525
   4569,   215.613937,  -54.6478004
   4570,   184.459763,   59.7579956
   4571,   183.192612,   -58.149807
   4572,   178.483582,  -26.7402973
   4573,    179.26445,  -34.3149414
   4574,   178.240784,  -61.2599869
   4575,   173.602264,  -65.5327377
   4576,   174.176224,  -58.2582626
   4577,   185.968079,   60.8631821
   4578,   194.755325,   57.5797768
   4579,   192.725021,   65.2357101
   4580,   184.150284,   21.1812363
   4581,   172.914642,  -51.6967163
   4582,   219.523117,   54.8742752
   4583,   218.166962,  -6.86962271
   4584,   221.995789,  -36.8433495
   4585,   221.995285,   26.6492214
   4586,   220.849594,  -42.1890373
   4587,   219.572159,   18.5409698
   4588,   201.455826,   58.0751953
   4589,   224.279282,   37.7752495
   4590,   225.258453,  -23.7422276
   4591,   179.786682,   2.93388391
   4592,   171.807999,  -58.8387833
   4593,   180.243149,   -24.347105
   4594,    173.99025,   40.1778526
   4595,   185.002472,   28.6726227
   4596,   223.411362,   33.3519363
   4597,   221.946136,  -28.2955284
   4598,   206.424026,   56.1904716
   4599,   155.307785,   65.6711578
   4600,    217.02742,   56.2960396
   4601,   220.936035,  -39.1961174
   4602,   220.637146,     21.79109
   4603,   173.998825,  -16.6945705
   4604,   180.967041,  -10.2795544
   4605,   180.303635,  0.633127391
   4606,   182.449387,    3.0575788
   4607,   197.167862,   59.3376007
   4608,   173.289597,  -55.4341393
   4609,   194.405869,   55.4580688
   4610,   178.149445,   -24.520647
   4611,   182.423935,  -11.8344603
   4612,   199.235519,   58.7282066
   4613,   201.034637,   55.7504349
   4614,    182.41864,  -60.0185623
   4615,   153.073883,   64.6850433
   4616,   182.123444,  -30.5077686
   4617,   184.741699,   30.5251865
   4618,   203.807358,  -54.2718811
   4619,   177.220795,   44.2869606
   4620,   216.645065,   2.72737098
   4621,   214.945786,  -58.2394714
   4622,   216.865799,   8.98350143
   4623,    217.09581,  -52.4292831
   4624,   177.929626,   -36.304924
   4625,   225.139984,  -21.5799866
   4626,   225.913559,   39.3699646
   4627,   174.416565,  -50.1266823
   4628,   171.195694,  -53.1417313
   4629,   215.901794,   -6.0512805
   4630,   221.834457,  -35.0504608
   4631,    222.45607,   28.7799206
   4632,   187.154892,   28.7919445
   4633,   222.523224,  -23.7870426
   4634,   221.803711,   38.9315491
   4635,    172.57959,   40.8973083
   4636,   176.989456,   40.9239731
   4637,   221.245834,   36.0987549
   4638,   219.601562,  -25.7561264
   4639,    218.03772,  -38.6618156
   4640,   219.840012,   24.0550461
   4641,   188.823547,   -58.678421
   4642,   179.088837,   56.6030693
   4643,   214.320831,   55.7672424
   4644,   221.652481,  -30.6694775
   4645,   220.516159,    31.277319
   4646,   203.315735,   55.0001602
   4647,   172.457184,   -43.372982
   4648,   213.379242,   3.58243203
   4649,   208.488113,    55.281517
   4650,   185.020828,   14.2823124
   4651,   184.762436,  -53.8341446
   4652,   183.693207,   57.2826462
   4653,     216.6707,   -4.0590415
   4654,   187.321747,   21.8184929
   4655,    173.04657,   52.0723114
   4656,   179.318375,   36.8585587
   4657,   174.482559,  -47.1593246
   4658,   173.353729,   55.0093231
   4659,   194.924789,  -56.0764999
   4660,   171.423126,  -66.4263611
   4661,   215.515244,  -51.0123749
   4662,   214.728516,   10.9303646
   4663,   183.867691,   11.4933891
   4664,   186.028061,   12.3610268
   4665,     216.9841,  -60.8276672
   4666,   176.621445,  -38.1158409
   4667,   182.447571,   5.35049772
   4668,   176.704956,  -54.1333275
   4669,   190.391937,   53.7621994
   4670,   184.046951,  -13.3628263
   4671,   182.303574,   -21.652607
   4672,   184.166656,  -29.1465778
   4673,   182.649033,  -33.6455269
   4674,   205.219193,  -52.5369797
   4675,   200.353058,  -54.1863251
   4676,   215.293777,  -7.97850513
   4677,   224.114914,   -34.870739
   4678,   224.719604,   28.1675453
   4679,   187.438858,   26.9957581
   4680,   179.498016,   44.8037834
   4681,   178.653763,    42.411129
   4682,   175.620224,    39.115654
   4683,   188.831223,   -61.751545
   4684,   179.187988,   59.7451668
   4685,   216.603165,   53.2247429
   4686,   211.198013,   56.0912247
   4687,   219.094849,  -28.1250439
   4688,   220.889267,   33.6253738
   4689,   169.827988,  -44.6257591
   4690,   211.543915,    2.4854486
   4691,   205.667374,   54.0506325
   4692,   190.103882,   21.2565842
   4693,   173.250671,  -45.4263458
   4694,   180.746841,   38.7056503
   4695,   175.895065,   54.3895569
   4696,     226.2715,   42.3352585
   4697,   226.813675,  -18.7858505
   4698,   179.740494,  -8.62883282
   4699,   170.813507,   54.4980431
   4700,   184.348633,    -10.48524
   4701,   182.133728,   55.2329788
   4702,   186.185791,  -52.3738823
   4703,   220.071915,   28.9433327
   4704,   219.579468,  -35.6609154
   4705,   192.446884,  -56.1855583
   4706,   181.952789,  -53.7388229
   4707,    189.48912,   30.2294559
   4708,   184.312759,   32.4727249
   4709,   216.812164,   23.4232311
   4710,   214.951263,  -38.1697388
   4711,   181.968262,  -24.5371952
   4712,   182.677383,  0.934737265
   4713,   220.279678,  -21.7069016
   4714,    220.57843,    41.285759
   4715,   200.415558,   53.4294586
   4716,   195.666306,   64.7116928
   4717,   178.422333,   -54.780899
   4718,   188.269745,   56.1025887
   4719,   177.493576,  -49.9363327
   4720,   216.254501,   -10.940834
   4721,   185.106232,    35.835041
   4722,   187.391556,   33.5780296
   4723,   221.721359,   -32.943512
   4724,   216.207916,  -33.1360016
   4725,   217.709961,    29.072649
   4726,   175.590546,  -44.5139008
   4727,   217.103729,  -49.2078972
   4728,   216.327713,   14.2082329
   4729,   189.461472,   15.4047003
   4730,   173.824997,  -39.3249435
   4731,   199.522736,   51.2699432
   4732,   183.129074,   9.06182957
   4733,   184.733566,   2.96297383
   4734,   192.277954,   53.6995964
   4735,   183.890671,  -16.2177181
   4736,   184.034302,  -22.7060966
   4737,    206.95105,  -53.6563072
   4738,   199.062073,  -51.8479996
   4739,   213.608475,   -7.3301239
   4740,   174.699326,  -53.1886292
   4741,    210.18277,    4.1896224
   4742,   188.409363,   19.2865047
   4743,   182.873322,   37.4762001
   4744,   178.136322,   53.8965683
   4745,   196.965866,  -52.9623528
   4746,   184.678345,  -7.80479002
   4747,   180.505112,   55.0135918
   4748,   186.514114,  -57.2653694
   4749,   194.520874,  -53.2875061
   4750,   182.276428,   53.2342148
   4751,   183.376816,  -52.3163033
   4752,   188.869873,    28.734396
   4753,    182.39418,  -27.3405952
   4754,    184.19986,  -1.86450684
   4755,   219.970047,  -23.6328621
   4756,     220.1203,  -19.9929657
   4757,   218.591263,   38.4087486
   4758,   222.718658,   42.6190414
   4759,   198.320755,   54.2955818
   4760,   210.075623,   54.8646698
   4761,   167.436234,   -45.120079
   4762,   212.337753,   54.4697533
   4763,   214.797531,  -35.1662979
   4764,   217.269257,   26.5154476
   4765,   219.828796,   51.9873161
   4766,   219.330292,  -9.70733738
   4767,   179.046158,  -51.1128769
   4768,   177.711914,   -45.229744
   4769,   213.646332,  -40.7243843
   4770,   214.601532,   21.1674252
   4771,   181.696777,  -7.43483829
   4772,   184.918747,  -34.5602493
   4773,   209.788651,   0.85728699
   4774,   188.025421,  -29.5726776
   4775,   176.555298,  -8.01905441
   4776,   204.949112,  -50.1914215
   4777,   189.234787,   11.3679914
   4778,   205.088242,   51.7327538
   4779,   182.428055,   44.8261147
   4780,   210.557541,   53.3015976
   4781,   208.951614,  -54.6652222
   4782,   218.786316,   -12.312747
   4783,   178.688904,  -6.88184023
   4784,   200.976898,  -50.4038658
   4785,   190.286148,   13.8981915
   4786,   201.509445,   49.6236649
   4787,   196.347412,   54.9654045
   4788,   180.601364,  -19.2326355
   4789,   219.567947,   49.1728821
   4790,   210.543579,    7.2706399
   4791,   187.046356,   17.7289677
   4792,   177.764343,   51.4529839
   4793,   183.601852,  -36.8958244
   4794,   167.659805,  -46.8911514
   4795,   181.826828,  -3.06894231
   4796,   225.481918,    -16.91502
   4797,   224.687927,   43.9853287
   4798,   177.748138,  -52.5601234
   4799,    180.46524,   -49.611927
   4800,   216.804108,   -42.394558
   4801,   213.495163,  -39.2384377
   4802,   214.105713,   24.6774235
   4803,   216.175659,   19.3548069
   4804,   188.669464,  -33.3685608
   4805,   208.353088,   2.97723246
   4806,   209.449051,   -1.3632642
   4807,   190.338882,  -31.2186661
   4808,    209.42131,   57.0457993
   4809,   202.846649,  -49.1510048
   4810,   188.287109,   8.55462265
   4811,   184.075195,   42.9147873
   4812,    185.03656,   9.56878567
   4813,   177.695633,  -43.9276848
   4814,   215.389633,   16.1583805
   4815,   215.602829,  -47.7909698
   4816,    187.75148,  -53.6472626
   4817,   180.183487,   53.3323555
   4818,   188.429382,   53.7215424
   4819,   189.321884,  -55.0758896
   4820,   217.995529,   50.9770203
   4821,   189.050735,  -51.5297318
   4822,     213.8564,   -49.442524
   4823,   213.995972,   13.2893772
   4824,   217.291931,  -46.0249634
   4825,   210.518585,  -56.4566612
   4826,   216.488632,  -14.3101263
   4827,   208.000992,   51.0869331
   4828,   198.624084,   47.8314705
   4829,   212.369308,   8.41348267
   4830,   178.974899,  -2.18952727
   4831,    182.57901,  -4.72961235
   4832,   218.963242,  -44.0432053
   4833,   213.910355,  -42.6286736
   4834,   212.745789,   19.3368492
   4835,   217.461243,   17.3509731
   4836,   189.738861,  -27.7877178
   4837,   185.865631,   7.22603655
   4838,   184.287506,   46.3589516
   4839,   184.384384,   39.4032173
   4840,   190.397491,  -57.0030327
   4841,   186.446182,   51.6983604
   4842,   188.539581,   16.6228161
   4843,    182.73053,  -20.1672115
   4844,   180.543472,  -52.3228455
   4845,   179.790283,  -44.0028076
   4846,   186.171143,   55.7873535
   4847,   182.102814,  -39.1375427
   4848,   183.463699,  -6.34461975
   4849,   221.193314,   44.4385376
   4850,   221.965897,  -17.0808678
   4851,   219.304001,   43.1924362
   4852,   179.799515,  -4.04524612
   4853,   184.347107,  -20.8357296
   4854,   188.213531,  -26.0552979
   4855,   175.593765,  -39.8177795
   4856,   180.049011,   48.9730186
   4857,   189.541702,    24.178051
   4858,   208.754974,    5.9791851
   4859,   189.779465,   36.2593422
   4860,   211.751678,   50.7187233
   4861,   206.795898,  -48.8167419
   4862,   192.232971,   51.7447472
   4863,   195.853607,  -48.8467331
   4864,   189.416565,  -37.1506538
   4865,   215.379257,   29.3719559
   4866,   214.351944,  -32.0582314
   4867,   190.075089,   17.9093323
   4868,   178.544464,  -39.4842911
   4869,   177.520538,  -42.3135567
   4870,      217.334,  -19.1918507
   4871,    216.07753,   43.7459373
   4872,   208.964249,    9.1599741
   4873,   211.497864,  -42.9617653
   4874,   211.165466,   17.4364376
   4875,   205.685501,   6.30232906
   4876,   181.698547,  -44.8420906
   4877,   186.007477,  -6.64515972
   4878,   186.822266,   37.8051682
   4879,   195.346436,   51.1066628
   4880,   186.694183,  -2.30539012
   4881,   185.898392,   44.5192795
   4882,   189.353928,   49.9557571
   4883,   214.645142,  -12.7595272
   4884,    187.72168,  -16.8676605
   4885,   215.896545,  -17.6141262
   4886,   187.031937,  -24.2126656
   4887,   182.539612,   48.5205688
   4888,   192.338974,   24.1630287
   4889,   190.326828,   32.2133484
   4890,   190.307953,   39.0464783
   4891,   214.564285,   51.4829254
   4892,   208.757019,   -49.342598
   4893,   194.458832,  -50.7988853
   4894,   199.873352,  -48.2433662
   4895,   188.019424,  -39.5966072
   4896,   190.981766,  -34.9331894
   4897,   215.993912,   31.5380402
   4898,   212.923477,  -34.0779839
   4899,   213.209961,  -29.0916786
   4900,   188.071854,   5.57912254
   4901,   204.556183,   49.3979149
   4902,    210.61586,  -54.2611008
   4903,   187.556854,   43.0412369
   4904,   215.983841,  -20.5689983
   4905,   219.367233,  -18.0662785
   4906,   215.687576,   40.4580193
   4907,   208.733398,  -41.7245979
   4908,   210.943192,   20.6923943
   4909,   204.115768,   5.19925499
   4910,   183.508392,  -46.1007881
   4911,   188.566742,  -48.4460716
   4912,   184.848816,  -50.8223648
   4913,    187.47374,   49.5886612
   4914,   190.236145,  -24.7123089
   4915,   194.850922,   25.6770096
   4916,   209.652344,  -52.1992378
   4917,   204.308945,   47.1712341
   4918,   184.328003,  -40.5254974
   4919,   218.466156,   33.7740784
   4920,    216.41806,  -27.5348816
   4921,   186.976257,   4.25414038
   4922,   211.155472,  -12.8081093
   4923,   189.546951,  -19.8741131
   4924,   191.889725,   34.1013298
   4925,    191.46666,  -38.5042915
   4926,   189.284988,  -14.9584055
   4927,   214.273239,   31.7441483
   4928,   210.941116,  -28.6022434
   4929,   199.991882,  -44.6811638
   4930,    210.42485,   47.8456345
   4931,   211.823273,   12.9038992
   4932,   210.702179,  -50.0703049
   4933,   193.170502,     17.41782
   4934,   176.963242,  -3.09666324
   4935,   205.245819,    9.0971384
   4936,   187.768616,  -7.25547266
   4937,   204.776733,  -46.5282593
   4938,   188.062958,    39.912468
   4939,   182.339127,    51.086441
   4940,   184.928238,   49.4420853
   4941,   213.792694,   -26.872633
   4942,    216.15126,   33.7394791
   4943,    208.84227,  -28.3670444
   4944,   211.993149,   32.5530586
   4945,   189.281982,  -22.9542103
   4946,   190.200653,  -40.8626976
   4947,   193.386063,  -39.7630424
   4948,   192.251953,  -23.8080864
   4949,   191.028305,   41.0956306
   4950,   194.440628,  -48.4964294
   4951,   194.919037,    -46.08041
   4952,   214.001724,  -19.3053017
   4953,   215.888657,    38.086998
   4954,   214.347763,   42.4920044
   4955,   209.635193,  -45.1765327
   4956,   211.968628,  -38.6131592
   4957,   209.103241,   18.7568226
   4958,   211.977798,   25.6936035
   4959,   205.152008,   3.65557384
   4960,   203.326355,   6.38494778
   4961,   183.470596,  -49.3038864
   4962,   185.059296,  -44.1691551
   4963,   191.519196,  -50.0687408
   4964,   186.515671,  -49.4295387
   4965,   186.327026,   50.2360153
   4966,   194.321198,   24.3368492
   4967,   195.207352,   27.2487316
   4968,    202.44989,   45.3971672
   4969,   186.306564,   3.04757524
   4970,   211.126144,   -9.9266901
   4971,    193.76918,   32.5236626
   4972,   190.399414,  -17.9274158
   4973,   187.536957,  -13.4887161
   4974,   210.247986,   44.6264229
   4975,   213.173889,   15.2622871
   4976,   209.376068,  -47.2163925
   4977,   208.617966,    12.712553
   4978,   204.972427,   12.0323658
   4979,    184.96965,  -5.47328568
   4980,   189.852097,  -8.77024364
   4981,     194.0802,    35.619976
   4982,   191.153732,    47.861599
   4983,   207.608963,  -44.5578499
   4984,   203.098755,  -43.7608757
   4985,   194.393661,   20.1809139
   4986,   194.238617,   15.7631216
   4987,   196.847672,  -44.6396446
   4988,   187.655502,   45.8731842
   4989,   189.164001,   44.6458702
   4990,   212.064819,  -17.6882935
   4991,   210.293198,  -30.5017624
   4992,   210.270905,   31.9604473
   4993,   194.832077,  -38.2354355
   4994,   192.779175,  -25.6557426
   4995,   192.496735,   39.0557251
   4996,   210.251755,   14.9155645
   4997,   212.987946,   39.6164169
   4998,   203.143799,   2.78316998
   4999,   200.038528,   45.8804779
   5000,   205.374527,   42.7675858
   5001,   211.043671,  -7.10414648
   5002,   207.976959,  -12.4991274
   5003,   194.155869,   29.6710644
   5004,   190.449036,  -13.4346132
   5005,   185.943359,  -11.9635048
   5006,    209.10463,   43.5524063
   5007,   191.358887,  -6.94893837
   5008,    194.74144,    38.258934
   5009,   213.185455,   37.5236092
   5010,    189.17572,  -43.8915558
   5011,   205.221451,  -44.2826538
   5012,   192.776886,   45.2843742
   5013,   195.400772,   18.2600441
   5014,   193.419891,    13.230195
   5015,   201.184402,  -42.8152237
   5016,   187.146179,   1.91384351
   5017,   215.042358,  -22.4872131
   5018,    207.58226,   23.6432228
   5019,    209.42485,  -39.3004723
   5020,   209.091446,  -26.6650085
   5021,   209.159286,   33.3508224
   5022,   194.213608,  -21.5549564
   5023,   193.716705,  -42.1330032
   5024,   215.742249,   -44.894352
   5025,    214.30336,    17.932663
   5026,   209.389908,   41.9150391
   5027,   207.716553,   44.0915794
   5028,   192.747116,  -13.5613279
   5029,    206.60582,   -13.450489
   5030,   204.081268,   1.02827632
   5031,   210.076401,   -37.652626
   5032,   209.136948,   25.1674175
   5033,   210.587036,   39.2637787
   5034,    201.11795,   2.04813647
   5035,   207.153305,  -39.7292366
   5036,   204.404236,   23.8628368
   5037,   210.543365,  -15.8796396
   5038,   207.025223,  -28.1416168
   5039,   211.137482,  -33.0898666
   5040,   207.632034,   31.7816677
   5041,   194.456085,   -35.071228
   5042,   194.894928,  -41.1677513
   5043,    192.63266,   -27.270752
   5044,   207.848602,  -7.34081888
   5045,   193.233414,   28.0094738
   5046,   187.934128,  -10.4370232
   5047,   193.660339,   -8.1922636
   5048,   187.010727,  -5.80351973
   5049,   191.970367,  -43.9016418
   5050,   190.677368,   43.6079865
   5051,   206.198471,   14.0501757
   5052,   214.261688,  -24.6104736
   5053,    189.55336,  -1.35308921
   5054,   208.588943,  -25.1140804
   5055,   194.558167,  -19.6024418
   5056,   196.147705,  -23.3707676
   5057,   194.060089,  -43.7589226
   5058,   199.612839,   42.5152435
   5059,   195.539825,   14.2622509
   5060,   217.532211,  -23.1705379
   5061,   199.556458,  -41.1066132
   5062,   198.045761,   18.5565109
   5063,   220.331543,  -14.7233953
   5064,   197.414719,   24.8810062
   5065,   209.262024,  -5.80555439
   5066,   205.293304,   41.2776489
   5067,   195.722488,    28.741581
   5068,   190.659866,  -3.94630671
   5069,   198.288849,   44.2631645
   5070,   194.522827,     11.61479
   5071,   201.114822,   40.9904594
   5072,   196.664597,    12.612792
   5073,   189.257507,   41.8812904
   5074,   194.677872,  -14.9653826
   5075,   206.535858,  -8.77282524
   5076,    210.77063,   40.8694954
   5077,   200.252716,   3.90965033
   5078,   204.048233,   20.9858932
   5079,   209.410812,  -32.1970596
   5080,   209.594727,   29.8193226
   5081,   195.936417,   -34.229847
   5082,   195.452057,  -11.2048693
   5083,   190.380875,  -46.7053795
   5084,   193.364273,   42.9572906
   5085,   199.082718,   27.8885078
   5086,   189.023605,   46.9874954
   5087,   210.186707,    36.872139
   5088,   199.126648,   23.0071964
   5089,    210.68486,  -4.11220932
   5090,   205.067917, -0.643692136
   5091,   203.725998,   14.5077229
   5092,   197.843918,   15.8145628
   5093,   208.105835,  -17.0988293
   5094,   202.023376,  -38.9439735
   5095,   194.714218,  -27.6612244
   5096,   206.586044,   40.4913216
   5097,    199.49408, -0.288863271
   5098,   209.577209,  -19.5938721
   5099,   205.238449,  -17.8790092
   5100,   209.633102,  -34.8700867
   5101,   212.557144,    27.556015
   5102,    196.57785,  -30.3651257
   5103,   196.000153,  -32.5774384
   5104,   206.462204,  -33.7903709
   5105,   206.788849,   28.5086823
   5106,   208.731567,   -22.109827
   5107,   197.288788,   -27.883791
   5108,   197.509689,  -35.1991234
   5109,   204.442001,  -12.6265745
   5110,   206.045166,  -6.24778843
   5111,   201.155823,   24.2951946
   5112,   205.460541,   19.0548763
   5113,   196.677002,  -9.13724232
   5114,   198.921814,     29.67173
   5115,   200.755478,   19.2745991
   5116,   211.731857,  -2.20322537
   5117,   203.656738,   16.3306446
   5118,   200.688477,   17.9171944
   5119,   199.854156,  -38.8088188
   5120,   204.441895,  -39.2113762
   5121,    205.14595,   38.5887871
   5122,   199.718781,  -2.17785597
   5123,    193.63858,  -2.94736624
   5124,    208.50499,  -3.09865618
   5125,   207.691772,   37.9209175
   5126,   202.766388,  -2.07294583
   5127,   189.554504,  -11.9749384
   5128,   206.576584,  -2.11607313
   5129,   199.937897,    26.005146
   5130,    193.59874,    9.0279274
   5131,   199.764557,   11.7772217
   5132,   198.866821,   13.6428709
   5133,   195.459305,   45.5901489
   5134,   196.896103,   -40.098465
   5135,   192.525803,  -18.9310398
   5136,   203.110168,   18.2099209
   5137,   207.688736, -0.989527345
   5138,   204.692734,  -15.2886362
   5139,   199.769363,  -3.99569869
   5140,   204.608383,  -31.9104786
   5141,   204.721542,   31.1052551
   5142,   200.274551,  -25.6046886
   5143,   199.994034,   36.1852646
   5144,   200.365479,  -34.2287216
   5145,   203.571426,   13.0110493
   5146,   193.558212,  -16.8539219
   5147,   204.943832,   26.6967583
   5148,   205.192413,  -3.55957723
   5149,      199.528,   38.6945724
   5150,   196.764328,  -6.60994577
   5151,   204.610718,  -36.9421921
   5152,   199.172104,   8.64998531
   5153,   195.299622,  -13.2323151
   5154,   194.760971, -0.940089822
   5155,   203.064453,  -6.90612173
   5156,   198.909256,   5.92498398
   5157,    199.81633,  -8.27767467
   5158,   196.734207,   30.0228729
   5159,   201.389923,  -13.0533857
   5160,   196.444672,   8.24157715
   5161,   204.261185,  -34.8620377
   5162,   196.217178,   1.25230289
   5163,   202.412399,   36.0484695
   5164,   199.838989,  -5.46892452
   5165,   195.572723,  -17.7793999
   5166,   198.075089,   31.0766659
   5167,   201.302231,  -32.1889343
   5168,   200.642105,   30.3951893
   5169,   205.831879,  -42.0728188
   5170,   204.103516,  -5.18255854
   5171,   197.533539,   -4.5478282
   5172,   205.589096,  -27.6227283
   5173,    203.60614,   27.9753056
   5174,   205.400406,   33.5005379
   5175,   198.775742,  -22.4535236
   5176,   200.397171,  -28.4200935
   5177,   200.243103,   34.4583893
   5178,   201.218506,    -6.193573
   5179,   195.546875,  -3.97960591
   5180,   200.618042,  -10.7285442
   5181,   194.993622,   4.74081755
   5182,   204.180298,  -22.0334053
   5183,   203.142624,  -33.3650551
   5184,   193.129974,   2.61308503
   5185,    195.98465,   39.3809547
   5186,   199.765228,  -15.6001148
   5187,   200.521713,   10.2945461
   5188,   191.479813,   4.92435884
   5189,   192.927307,   40.9378815
   5190,   198.667114,   33.5840912
   5191,   190.384109,   9.62674236
   5192,    200.92572,   -23.371769
   5193,   198.249298,  -13.8088942
   5194,   202.155869,     33.46455
   5195,   199.135834,  -17.5128231
   5196,   197.231522,   -18.945713
   5197,    200.17421,  -21.1593895
   5198,   204.090485,  -24.7044334
   5199,   199.865906,   32.0814323
   5200,   205.431824,  -25.9617119
   5201,   202.073288,  -19.5483055
   5202,   202.131699,   -17.560709
   5203,   204.311203,  -28.7936478
   5204,   190.009155,   2.16835284
   5205,   195.542877,   34.0393219
   5206,   152.397552,   45.4487114
   5207,   182.877777,  -42.7254028
   5208,   237.385895,  -40.4223709
   5209,   168.979263,  -42.7031288
   5210,   216.252762,   81.8534012
   5211,   150.625366,  -84.6012268
   5212,   177.097855,   17.3039856
   5213,    160.03418,  -17.8661633
   5214,   174.061447,   83.7415009
   5215,   206.935776,  -23.7471771
   5216,   174.799713,   12.8795376
   5217,   227.259125,  -30.7670097
   5218,   194.898209,  -69.8774719
   5219,   172.103943,   68.9941025
   5220,   244.951843,   43.7242126
   5221,   244.895996,  -18.4233093
   5222,   183.072067,   34.2389145
   5223,   216.047211,   49.7632904
   5224,   152.158112,  -50.8803101
   5225,    244.91954,  -39.0372124
   5226,   245.272339,   23.7507839
   5227,   226.129181,   21.7572346
   5228,   225.339111,  -43.8327942
   5229,   205.251877,   88.7229919
   5230,   159.420837,  -48.6352768
   5231,    228.54126,  -17.5579433
   5232,   228.149399,   43.6627541
   5233,   186.305176,  -22.3893967
   5234,   211.369476,    43.111927
   5235,   198.555496,  -83.8747025
   5236,   169.533371,   82.2701416
   5237,   148.057861,  -35.4360542
   5238,   192.434128,   49.8780136
   5239,   213.533493,  -73.3881607
   5240,   167.903473,  -11.2929296
   5241,    121.63343,   89.9385681
   5242,   217.798721,   44.9652557
   5243,   169.183456,   35.2991829
   5244,   165.528503,   34.5816422
   5245,    188.34404,   3.08888698
   5246,   216.105301,   46.7190628
   5247,   190.474915,  -69.1393585
   5248,   177.020935,   69.7542877
   5249,   214.140701,   48.5369987
   5250,   176.244339,   67.2346039
   5251,   191.238525,  -66.6145706
   5252,   124.681183,   91.3980026
   5253,   147.491241,  -37.8837585
   5254,   142.884796,  -52.2025948
   5255,   126.479378,   90.7617645
   5256,   143.068207,   -50.078083
   5257,   247.299362,   90.7469177
   5258,   122.721367,   90.4688797
   5259,   127.908585,   90.0661774
   5260,   125.348717,  -89.2799225
   5261,   124.167412,   89.5221939
   5262,   128.110947,   88.4128418
   5263,   133.063614,  -88.9958649
   5264,   227.652191,   89.2801895
   5265,   133.414093,   88.9028931
   5266,    160.15477,  -88.3312607
   5267,   226.736557,  -88.3313065
   5268,   224.359955,  -88.8384705
   5269,   155.533646,   89.0030899
   5270,   217.531204,  -89.1543427
   5271,   198.068527,    89.091011
   5272,   141.118484,   62.9885979
   5273,    151.70491,   35.7701111
   5274,    151.08313,   -43.718647
   5275,   131.329544,  -86.7099304
   5276,   154.876114,  -25.8654499
   5277,   154.020889,   34.8830605
   5278,   153.911804,  -30.2041817
   5279,   131.828384,   86.5452271
   5280,   137.987045,   86.1851425
   5281,   239.768906,  -86.0359039
   5282,   230.616821,  -85.2617874
   5283,   240.997452,   86.9341736
   5284,   241.871078,   82.6378479
   5285,   223.707321,  -86.6575775
   5286,   243.789749,   78.9929657
   5287,    244.11084,   77.3581772
   5288,   243.999969,   73.3917007
   5289,   243.747955,   71.2402725
   5290,   243.224854,   48.5227165
   5291,    242.96257,   46.3237991
   5292,   149.395996,   86.2290192
   5293,   153.593613,   86.8180542
   5294,   242.048615,    32.270565
   5295,   243.112274,   21.6839561
   5296,   191.940826,   86.1746902
   5297,   198.328629,   86.9608383
   5298,   243.426147,    10.370286
   5299,   243.418243,    8.3388052
   5300,    243.23378,   -13.434021
   5301,    242.93222,  -15.6938486
   5302,   241.931396,  -30.0382614
   5303,   242.554611,  -41.8760681
   5304,   156.932861,  -22.3311138
   5305,   240.025375,  -30.8156548
   5306,   240.180084,   31.4571457
   5307,   239.376877,   87.1037216
   5308,   135.296967,  -87.5434189
   5309,   136.947845,  -86.8603516
   5310,   157.990173,  -24.9873238
   5311,    132.06543,   84.3280334
   5312,   215.507919,  -86.7263718
   5313,   211.017181,  -86.2273712
   5314,   139.757492,   83.2733307
   5315,   143.702438,   81.2393417
   5316,   144.198853,   61.7868309
   5317,   159.490616,   -27.863678
   5318,   200.337616,  -86.2068253
   5319,   190.111343,  -86.3377075
   5320,   152.565399,  -86.6063919
   5321,    150.26059,  -51.4642258
   5322,   152.049179,   84.5883331
   5323,   156.027222,   84.6225891
   5324,   241.160477,  -3.56110239
   5325,   240.102539,   -17.662302
   5326,   240.426743,   58.9071999
   5327,   240.208664,   44.3061752
   5328,   137.801529,  -81.2184982
   5329,   138.927078,  -79.8080215
   5330,   150.334534,   44.6771927
   5331,   148.614441,   52.9796982
   5332,   175.953766,   83.9864731
   5333,   182.087906,   82.8410263
   5334,   222.905502,  -84.6808472
   5335,   221.145142,  -84.9567795
   5336,   196.521317,   84.8689346
   5337,    202.75177,    84.447937
   5338,   242.202484,   77.2543793
   5339,   242.020767,   75.5108414
   5340,   241.674149,   71.5787354
   5341,   241.141495,   69.5687408
   5342,   240.945984,   23.3756123
   5343,   237.855392,   17.9995346
   5344,   241.876862,    10.086915
   5345,   241.248444,   6.38548803
   5346,   157.397247,   31.6440239
   5347,   229.160126,    85.518013
   5348,   241.152374,   79.6445541
   5349,   134.082611,   82.9680176
   5350,   137.330109,   81.4140396
   5351,    157.62471,   27.7278671
   5352,   141.146088,   80.3988495
   5353,   151.356705,   51.7590141
   5354,   230.589325,  -82.2586136
   5355,   239.695633,   10.0090427
   5356,   148.875061,  -84.5975723
   5357,   194.937698,  -82.9409637
   5358,   145.827347,  -83.0060043
   5359,   205.396805,  -81.9096985
   5360,   186.114792,    -83.01474
   5361,   178.549133,  -83.2404404
   5362,    169.73317,  -84.2910538
   5363,    159.46492,  -82.6808319
   5364,     152.6017,   82.9215088
   5365,   158.202988,   82.1510391
   5366,   177.903976,   81.8338776
   5367,   195.227814,   83.0049057
   5368,   200.553024,   82.6083832
   5369,   236.024292,   17.6488953
   5370,   222.287125,  -83.1740189
   5371,   238.901855,    56.472538
   5372,   238.151108,   46.8147087
   5373,   237.080719,   42.6761742
   5374,   237.750534,  -47.3095627
   5375,   161.952194,  -28.3560123
   5376,   162.467636,  -26.3128319
   5377,   237.863358,  -60.7338486
   5378,   214.846054,   79.6713486
   5379,   216.594406,   78.4479904
   5380,   239.736603,   6.35672331
   5381,   238.353729,  -14.9187536
   5382,   236.754044,  -19.1924076
   5383,   239.964066,   73.6885757
   5384,   241.691223,   79.0877914
   5385,   159.294724,  -1.90392005
   5386,   160.708527,   -13.821579
   5387,   157.584915,  -20.4268303
   5388,    157.43187,  -47.8780174
   5389,   231.093719,   84.1120529
   5390,   190.117523,   79.8838196
   5391,   161.683212,  -21.4420052
   5392,   158.430466,   41.1126823
   5393,   240.303848,   79.3206787
   5394,    172.69548,   78.4989319
   5395,   237.615128,   9.04527569
   5396,   242.284531,  -56.2119827
   5397,   161.183914,   17.7102642
   5398,   187.162033,   77.5217667
   5399,   147.534912,   80.2350082
   5400,   156.732346,  -53.9176903
   5401,   139.099167,   78.6517029
   5402,   237.566589,   6.03552055
   5403,    235.53093,   21.0507698
   5404,   221.911057,  -81.0308914
   5405,   233.155685,   82.3064651
   5406,   232.723221,  0.704630852
   5407,   235.431641,  -47.2423859
   5408,   146.986923,  -81.9724503
   5409,   146.830276,  -80.5700378
   5410,   202.558929,   80.3633575
   5411,   161.337097,  -42.8522682
   5412,   235.899872,   58.4307556
   5413,   160.234451,   79.5000458
   5414,   170.655304,   76.7928619
   5415,   153.791046,   56.4009476
   5416,   154.020721,   52.2295189
   5417,   232.901413,   10.8887711
   5418,   236.626221,  -79.0214462
   5419,   239.959946,  -65.8172073
   5420,   145.126129,  -71.8408508
   5421,   173.021194,   80.3309784
   5422,   177.832428,   80.1216583
   5423,    180.84285,   78.4459152
   5424,    233.24353,   8.90323544
   5425,   233.263092,  -19.2853718
   5426,   191.058563,  -81.9044724
   5427,   185.278534,  -79.7351074
   5428,   230.160461,   79.5480042
   5429,   200.751877,  -82.5192795
   5430,   195.056976,  -81.1673965
   5431,   171.655853,  -81.9673538
   5432,    161.73494,  -81.9429398
   5433,   215.488403,  -82.5651779
   5434,   234.095734,   65.7640076
   5435,   232.674469,   64.0750732
   5436,   164.805588,  -20.4520435
   5437,   238.144943,  -57.2503052
   5438,   234.640625,   -60.272789
   5439,   236.923828,  -63.2795677
   5440,   237.179459,  -50.9525452
   5441,    234.91362,  -31.6131172
   5442,   234.882339,   30.3593578
   5443,   182.095261,  -77.1140976
   5444,   220.798416,  -79.6356659
   5445,   164.369476,   19.1694145
   5446,   234.914032,  -39.5003052
   5447,   162.254059,  -79.0051804
   5448,    148.14859,   -82.492012
   5449,   219.392975,   73.9724274
   5450,   233.663574,  -32.6343994
   5451,   237.279358,  -9.03012085
   5452,   200.526123,    78.796463
   5453,    165.99791,  -23.1978722
   5454,   154.889236,   47.6492805
   5455,    147.17305,   65.5612793
   5456,   228.709702,   76.9696732
   5457,   233.440933,   58.2178459
   5458,   235.276855,  -76.3372879
   5459,   174.249893,     78.15345
   5460,    155.03035,   44.5809746
   5461,   229.837708,   42.0704498
   5462,   199.271896,   -80.474205
   5463,   177.075607,   75.7843094
   5464,   221.760544,  -78.1597672
   5465,   159.953217,   77.2389679
   5466,   170.458969,   74.3720016
   5467,   235.197189,   7.86750412
   5468,   234.279968,  -63.1423416
   5469,   181.835236,   75.2887573
   5470,    160.68222,  -49.3578568
   5471,    235.31633,   53.0224457
   5472,   233.512283,   29.0703506
   5473,   233.751831,  -15.4043741
   5474,   216.650482,   72.9173584
   5475,   183.242126,  -75.2483444
   5476,   164.291946,  -9.63954926
   5477,   167.680298,  -14.1102114
   5478,   181.726562,  -73.9958725
   5479,   175.260147,  -79.6588745
   5480,   173.530441,  -79.8565674
   5481,   169.117874,  -79.8961487
   5482,   166.927628,   31.3964748
   5483,   156.014832,   56.8756828
   5484,   155.595535,   58.8837013
   5485,   236.088165,  -55.0247574
   5486,   165.931335,   16.3575039
   5487,   157.613617,  -61.9081688
   5488,   222.179138,   73.9402771
   5489,   150.246994,   -77.961792
   5490,   235.043213,  -57.5333252
   5491,    166.74292,  -77.6517639
   5492,   192.135239,  -79.7476959
   5493,   169.310043,   38.6423683
   5494,   168.407349,   40.5088692
   5495,   199.160233,  -78.4045029
   5496,   162.887054,   21.8224239
   5497,   233.771545,   7.10890532
   5498,   234.446609,  -12.0550661
   5499,   170.828262,  -16.8679237
   5500,   147.625946,  -75.2793732
   5501,   165.712097,   -30.497612
   5502,   229.871613,   45.0402985
   5503,   160.747787,  -52.2336845
   5504,    231.28804,    21.785099
   5505,   236.047226,   73.6382904
   5506,   148.553055,  -73.0529556
   5507,   208.894363,  -78.0226974
   5508,   162.337433,  -50.4217186
   5509,   238.732468,  -71.6346359
   5510,   238.995621,  -73.5766602
   5511,   231.838501,   55.9645424
   5512,   170.190338,   71.8816452
   5513,   164.155029,  0.612952173
   5514,   173.612045,  -78.2704697
   5515,   176.219162,  -77.7534943
   5516,   178.163223,  -75.5208359
   5517,   227.381729,   5.03162336
   5518,   158.294296,    47.192379
   5519,   166.541504,   27.1037731
   5520,   169.447815,  -25.7222786
   5521,   168.044373,   -30.573473
   5522,   171.164032,  -28.4187241
   5523,   185.874863,  -74.4497147
   5524,   182.682022,  -72.1457748
   5525,   228.727936,   9.46265984
   5526,   229.315338,    7.4622035
   5527,   226.063293,    17.022728
   5528,   190.222321,   -77.736763
   5529,   217.715714,    69.856514
   5530,   224.737106,   72.8287354
   5531,   232.362534,  -13.5992947
   5532,   172.714966,   35.5959244
   5533,    151.45639,   -73.111412
   5534,   156.072632,  -66.1211166
   5535,   231.567459,   -33.999157
   5536,   167.667221,   13.6650944
   5537,   223.740005,  -74.0636597
   5538,   231.277206,  -62.7286415
   5539,   160.632797,  -75.9629517
   5540,   171.011353,  -13.8592682
   5541,   167.754013,  -33.2135239
   5542,   169.191132,  -34.7585983
   5543,   222.060776,  -73.6201935
   5544,   194.703476,    74.969986
   5545,   167.963669,   27.4972191
   5546,   232.725052,  -72.3510208
   5547,    215.48851,   69.0654068
   5548,   229.140594,   75.1495667
   5549,   169.881546,  -75.3659515
   5550,   171.170868,  -19.6699238
   5551,    228.24408,   46.3720016
   5552,   170.630386,   22.0472126
   5553,   180.070786,   70.9422455
   5554,   227.625656,   62.4579849
   5555,   221.396851,   68.4587479
   5556,   218.944855,   66.9829865
   5557,   154.338272,   67.7040405
   5558,   227.152466,  -39.6135674
   5559,   224.282318,  -32.8032417
   5560,   224.571686,  -19.5307999
   5561,   170.833939,  -23.2317543
   5562,   227.398743,   8.68275547
   5563,   172.260452,  -75.3015366
   5564,   229.334702,  -44.8418999
   5565,   197.768463,   71.5464478
   5566,   190.508865,   -75.162735
   5567,   168.831116,  -37.3943443
   5568,   226.439011,   -58.375515
   5569,   157.777878,  -72.3165817
   5570,   159.316437,  -73.1886673
   5571,    163.33168,  -52.5734673
   5572,   166.766205,  -55.5967064
   5573,   183.600616,  -70.1711044
   5574,   181.880524,  -69.1132202
   5575,   168.622253,  -73.3837738
   5576,   166.498184,  -63.9621849
   5577,   173.483383,  -29.0310688
   5578,   225.651871,   67.6045837
   5579,   173.447052,   32.6175537
   5580,   176.015427,   36.1792259
   5581,   206.668503,   67.2561951
   5582,   222.286896,  -19.6335754
   5583,    173.00589,  -12.2448301
   5584,   227.506042,   53.5392303
   5585,   227.254349,   71.7240219
   5586,   226.890259,  -71.4769974
   5587,   227.828247,   74.3441238
   5588,   229.879761,  -64.1098404
   5589,   157.562881,   73.9581528
   5590,   160.377747,   58.3544426
   5591,   159.942825,   60.4860344
   5592,   203.351135,   65.3088989
   5593,   198.641953,  -74.6522064
   5594,    197.05928,  -74.1475906
   5595,   211.009171,  -78.8504333
   5596,   231.301804,  -9.23819351
   5597,    169.80098,  -73.8539658
   5598,   227.055191,   47.5032845
   5599,   222.167694,  -3.55131602
   5600,   224.093079,  -17.8729572
   5601,    174.42836,  -19.5917835
   5602,   225.826752,   36.9850311
   5603,   156.690109,   68.8785019
   5604,   217.646057,  -72.0306168
   5605,   225.902695,  -37.0735321
   5606,   222.628754,   63.8914909
   5607,   223.061813,   45.7561684
   5608,   169.657562,   27.9947472
   5609,   221.737274,   19.6518688
   5610,   162.081894,   53.0180588
   5611,   175.722641,  -75.4825821
   5612,   174.277008,  -74.4867859
   5613,   225.680481,   49.3617592
   5614,   221.234421,  -5.66850185
   5615,   224.939743,  -50.4281731
   5616,   158.809723,  -66.3476105
   5617,   175.331421,  -27.8631802
   5618,   175.640732,  -24.1895275
   5619,   215.810013,  -70.8022766
   5620,   224.456161,  -57.6773834
   5621,   170.861053,  -42.1428146
   5622,   175.296539,   64.7447205
   5623,   167.831055,   65.7765732
   5624,   184.516556,  -68.0564499
   5625,   225.783798,   -14.212203
   5626,   219.317627,  -33.4653435
   5627,   165.491226,  -70.5466003
   5628,   169.296204,  -71.6950531
   5629,   205.059235,   63.8395576
   5630,   177.930695,   35.0989761
   5631,    173.58165,   28.3314056
   5632,   178.749176,   39.6316566
   5633,   171.407745,  -50.1188545
   5634,   170.010086,  -64.6553802
   5635,   171.750732,  -63.6345482
   5636,   174.220856,  -9.09033585
   5637,   172.817703,   14.2289028
   5638,   217.382004,   42.0607948
   5639,   222.683838,    57.873127
   5640,   194.722992,   70.2607651
   5641,   170.987793,  -73.0263519
   5642,   199.670837,   61.0465508
   5643,   195.610336,   62.1643295
   5644,      170.666,   52.1667442
   5645,     189.9254,  -70.7560349
   5646,   194.018082,   64.1801605
   5647,   193.642944,   62.4037514
   5648,   230.342285,  -10.1037197
   5649,   230.605057,  -11.1539211
   5650,   175.635956,  -32.1921539
   5651,   216.616791,  -68.8210602
   5652,     174.9729,  -72.6359177
   5653,   223.709915,   26.6714706
   5654,   185.050476,   63.7505608
   5655,   220.067291,   -37.561348
   5656,   222.164719,    -38.19384
   5657,   222.361298,   -40.379818
   5658,   222.266068,   24.6139679
   5659,    171.72348,  -71.2135544
   5660,   171.658096,    10.649457
   5661,   173.009705,  -62.6677551
   5662,   175.958176,  -48.6557388
   5663,    177.48497,  -18.9615383
   5664,   180.449844,  -16.1802807
   5665,   224.523621,  -47.7686615
   5666,   173.146423,  -41.1744881
   5667,   189.021072,   61.5707512
   5668,   220.364822,    63.236927
   5669,   217.068619,   62.2991524
   5670,   171.235306,  -5.75444794
   5671,   183.347351,  -64.9838333
   5672,   181.407013,  -64.1815186
   5673,   223.858337,   49.8606071
   5674,   223.982941,    53.022007
   5675,   219.534088,   46.1938324
   5676,    158.72464,   68.9243774
   5677,   222.538834,  -57.4090996
   5678,   222.165192,  -59.0581665
   5679,   220.112305,  -51.8695946
   5680,   209.918549,  -71.9263153
   5681,   214.576614,  -68.1200867
   5682,   215.637177,  -29.8403244
   5683,   177.268814,  -28.3660278
   5684,   177.791824,   19.6127014
   5685,   178.530792,   32.3240433
   5686,    179.70961,   41.0366516
   5687,   175.673676,  -6.04770088
   5688,   216.063431,    35.913681
   5689,   217.454605,  -34.2629318
   5690,   193.143311,    60.249176
   5691,   178.882797,  -11.6207981
   5692,   176.295029,  -46.0411224
   5693,   165.843018,    58.803421
   5694,    229.16893,  -9.74807739
   5695,   223.242081,  -48.9035263
   5696,   176.536072,  -57.8621864
   5697,   178.814178,  -19.8266716
   5698,   184.535828,   62.1361618
   5699,   182.137146,   -17.576273
   5700,   223.659103,   -61.806488
   5701,   190.506027,   58.4700546
   5702,   222.249481,    8.1804409
   5703,   175.138046,  -41.3492355
   5704,   194.698715,  -66.4639282
   5705,   219.924347,   8.49843216
   5706,   175.456512,  -70.5341568
   5707,   173.803787,  -69.9975967
   5708,   171.062531,  -68.8889236
   5709,    180.67897,   43.3456421
   5710,   214.566544,   45.4433937
   5711,   178.955551,   -48.443821
   5712,   196.770309,   57.0807343
   5713,   170.704239,   56.3006592
   5714,    215.93132,  -39.9792252
   5715,   180.426376,  -21.2525463
   5716,   218.607529,   10.2912073
   5717,   183.300095,   58.8147621
   5718,    185.88121,  -63.4819107
   5719,   181.945511,  -62.0784302
   5720,   179.928864,  -61.4614601
   5721,   177.777878,  -5.03330183
   5722,   179.297119,  -53.5822411
   5723,   178.089767,  -56.0506554
   5724,     174.6492,   57.0396614
   5725,   173.882462,  -67.9821014
   5726,   175.942978,     10.63554
   5727,   213.538406,   35.4389496
   5728,   213.923859,   33.3802757
   5729,   181.431183,  -35.6424065
   5730,   176.837708,  -40.8214455
   5731,   214.728806,  -63.9260712
   5732,   194.311111,  -63.6761017
   5733,   178.518829,  -57.4076538
   5734,   183.513458,  -31.9692554
   5735,   213.307449,  -36.9401703
   5736,   212.727753,  -64.1196213
   5737,   188.916168,  -64.8652802
   5738,    184.08374,   55.4393997
   5739,   183.213379,   23.7585907
   5740,    184.53624,   24.9978485
   5741,   219.127747,  -56.4098053
   5742,   212.815048,   47.0402641
   5743,   211.637802,   45.8341293
   5744,   181.963974,  -47.9481087
   5745,   179.962463,  -59.1360703
   5746,   208.580856,   59.1906433
   5747,   183.644562,  -18.7600422
   5748,     185.2724,  -17.7195015
   5749,   182.111481,  -23.0243168
   5750,    215.46347,   7.61172199
   5751,    213.75827,   6.48060226
   5752,   212.860641,   16.8145714
   5753,   190.353836,   56.0680809
   5754,    183.09346,   19.5739956
   5755,   211.272095,  -26.4733257
   5756,   210.767426,    23.903862
   5757,   209.191025,   22.1403885
   5758,   213.870071,  -44.6923752
   5759,   213.191071,  -59.4503784
   5760,   211.189728,  -60.2327538
   5761,   178.903488,  -45.8690147
   5762,   185.350143,   27.0605698
   5763,   212.855042,   1.21139514
   5764,   212.697678,  -14.3944941
   5765,   180.584534,  -54.8608818
   5766,   186.144882,  -27.5677109
   5767,   184.306046,   53.4216805
   5768,    176.25441,  -1.11982071
   5769,   175.612946,  0.533274353
   5770,   212.833374,  -11.3245325
   5771,   216.491714,   -56.843647
   5772,   179.531342,  -55.3891449
   5773,   179.423828,  -56.4421921
   5774,   183.161041,  -55.2543793
   5775,   208.736816,   45.8838692
   5776,   209.253128,  -14.1110859
   5777,   186.131607,   24.0360622
   5778,   187.193695,   25.3578033
   5779,   192.677521,  -58.5399818
   5780,    212.43692,  -51.2255821
   5781,    186.37291,   53.6495972
   5782,   194.114136,   53.4586792
   5783,   197.645096,   52.2913551
   5784,   184.936523,  -58.9320793
   5785,   184.597656,  -19.6013832
   5786,   185.866699,  -19.2125645
   5787,   187.654327,  -19.0503712
   5788,   211.729675,  -45.1057434
   5789,   185.144989,  -47.6421013
   5790,   180.933746,  -1.37498569
   5791,   210.232269,   27.1267262
   5792,   208.497925,   39.8124161
   5793,   206.907379,   36.2987595
   5794,   205.842667,    22.218977
   5795,   206.574387,  -21.7701054
   5796,    210.85289,   -58.681942
   5797,   211.983871,  -47.6598167
   5798,   209.449265,  -58.1759224
   5799,   187.211578,  -35.7827797
   5800,    212.46756,  -8.50917912
   5801,   206.621384,   46.7371902
   5802,   182.742233,   7.46111393
   5803,   187.649185,   23.2326221
   5804,   190.750839,  -58.8299675
   5805,   178.170547, -0.0891315341
   5806,   186.190414,  -55.4692917
   5807,   205.888245,   44.6595955
   5808,   208.560944,  -33.6793098
   5809,   209.593536,  -11.2911272
   5810,   188.510117,   51.4133682
   5811,   187.306198,  -20.4327297
   5812,   202.205811,  -52.4984589
   5813,   213.357941,   52.8009148
   5814,   188.191635,   -21.446413
   5815,   204.931458,   36.0935097
   5816,   191.674301,  -29.1285839
   5817,   193.839951,   51.6601143
   5818,   196.776077,   50.3602028
   5819,   198.273575,   49.8043175
   5820,   207.172073,   7.64555931
   5821,   194.008194,   39.2606697
   5822,     194.7117,   40.6129951
   5823,   209.468613,  -43.4861488
   5824,   198.069489,  -49.6479607
   5825,   192.678192,  -50.5563736
   5826,    206.28772,  -30.1202126
   5827,   206.254898,   1.99224126
   5828,   191.321472,   29.0381603
   5829,   197.595825,   35.3850479
   5830,   188.100204,   47.8662605
   5831,    211.26387,  -52.8946266
   5832,   212.652893,  -54.1170616
   5833,    209.52095,  -8.57773209
   5834,    184.46608,  -3.93409419
   5835,   207.987701,   26.5573673
   5836,   202.561325,   22.6886406
   5837,   187.366699,   15.0580816
   5838,   204.420883,  -19.9233341
   5839,   205.040985,  -23.4873009
   5840,   188.207672,   13.1611166
   5841,   188.668015,   48.9449654
   5842,   185.292557,  -57.5685539
   5843,   207.678757,  -31.5704193
   5844,    203.96196,    45.017868
   5845,   194.001358,  -29.9820671
   5846,   206.475281,  -11.2590036
   5847,   187.776535,  -56.6547127
   5848,   211.670624,  -55.2616005
   5849,   204.048767,   7.55570412
   5850,   202.210846,   19.9948406
   5851,   189.838593,   48.2908173
   5852,   195.746658,   48.1854248
   5853,   202.876205,  -23.8561687
   5854,   190.726532,    49.644371
   5855,   193.591919,   50.2907829
   5856,   203.988739,   40.6189079
   5857,   186.091446,  -5.02297211
   5858,   187.490097, -0.605542004
   5859,   197.817917,   40.8265762
   5860,   197.418167,   45.8104439
   5861,   191.929596,   19.1908092
   5862,   189.833389,   6.77360487
   5863,   191.698441,   7.90798616
   5864,   192.530167,   26.2032185
   5865,   196.905716,   32.4943352
   5866,   192.748138,   -48.347435
   5867,   201.264832,   14.2507362
   5868,   201.890533,   12.3677616
   5869,    199.84816,  -19.6563931
   5870,   191.200058,  -48.5165024
   5871,    190.49826,  -50.8542099
   5872,   202.573151,  -25.5030155
   5873,   204.792892,  -7.89256859
   5874,   206.277756,  -50.7772865
   5875,   191.327927,   12.2712221
   5876,   189.497253,  -5.68701363
   5877,   187.997696,  -4.60294676
   5878,   203.095398,    25.440733
   5879,   201.280258,   44.1296043
   5880,   202.488815,   39.9321365
   5881,    205.55574,  -10.0536327
   5882,   193.263031,   47.9807892
   5883,   201.924561,   8.19731426
   5884,   199.310745,   20.2150669
   5885,   202.183121,   -8.4081955
   5886,   196.880981,  -47.7120552
   5887,   204.801605,  -48.6271744
   5888,   188.531845,  0.900295079
   5889,   198.147308,  -20.4971352
   5890,   194.352676,  -23.5677624
   5891,   190.061111,  -49.1772575
   5892,   196.204071,  -36.7349663
   5893,   198.323029,   -33.267498
   5894,    198.38121,   -43.082531
   5895,   195.502991,   23.0575237
   5896,   202.371597,  -34.9074364
   5897,   201.790375,  -41.0259972
   5898,   193.209885,   6.20637178
   5899,   194.734985,   7.53188944
   5900,    188.78186,  -3.04589605
   5901,   192.341934,   14.8134651
   5902,   204.537659,   29.2807732
   5903,   202.913727,   29.2904186
   5904,   196.602097,   -21.650835
   5905,   194.820999,  -25.5440407
   5906,   201.598083,   6.32545471
   5907,   201.170242,   28.6240292
   5908,   195.614212,   9.92529392
   5909,   197.844437,   28.9592094
   5910,   194.626923,  -5.98646307
   5911,   197.168793,   26.9826965
   5912,   196.990463,  -42.0638084
   5913,   199.604553,  -36.5602951
   5914,   191.636932,  -2.05997062
   5915,    192.49646, 0.0333899744
   5916,   196.280609,   6.56842184
   5917,   198.771194,     3.021281
   5918,   197.519547, -0.513096809
   5919,   198.945221,   1.49124777
   5920,   220.738266,   109.367081
   5921,   202.642288,   107.830612
   5922,   187.564972,   110.130569
   5923,   170.397293,   110.650696
   5924,   156.333832,   109.631439
   5925,   141.124344,   110.950287
   5926,   124.218071,   107.330902
   5927,   234.552856,   131.507751
   5928,     215.1745,   125.104942
   5929,   204.239105,   127.197731
   5930,   188.441986,   124.606773
   5931,   173.853378,   126.330048
   5932,   155.377289,   124.776215
   5933,    140.84819,   125.147049
   5934,   123.656616,   124.373962
   5935,   106.500992,   125.737106
   5936,   216.667389,   140.596436
   5937,   205.642105,   142.711502
   5938,   189.485031,   138.478699
   5939,   173.552002,    139.28183
   5940,   152.097275,   142.036179
   5941,   143.798111,   138.723373
   5942,   125.925034,   143.571777
   5943,   111.049866,    146.64772
   5944,     96.21521,   140.502777
   5945,   74.2372589,   141.201126
   5946,   228.678436,   159.909134
   5947,   216.467041,   159.833679
   5948,    201.25769,   156.031647
   5949,   187.497986,   154.213455
   5950,    169.10199,    151.88237
   5951,    158.97226,   153.351791
   5952,   140.747589,   156.838135
   5953,   129.288254,   153.734528
   5954,    107.90139,   159.833328
   5955,   94.4680939,   156.470215
   5956,    80.059494,   158.568405
   5957,   61.0320473,   158.041595
   5958,   44.8831902,   157.404907
   5959,   32.4091644,   158.792023
   5960,   234.522781,   175.115997
   5961,   215.525223,   169.873322
   5962,   200.926743,   176.429306
   5963,   185.512238,   174.589691
   5964,   170.679825,    169.02655
   5965,   156.064209,   171.405258
   5966,   145.768555,   174.929459
   5967,   126.736893,      172.166
   5968,   107.366112,   172.705231
   5969,   93.0520401,   171.164566
   5970,   76.5790024,   169.452194
   5971,   65.7206268,   173.010254
   5972,   51.5529366,   171.819855
   5973,   32.2916527,   171.722153
   5974,   21.1905746,   170.489288
   5975,   234.271072,   192.299347
   5976,   218.474533,   189.217041
   5977,   201.453369,   186.348358
   5978,   186.612152,   191.018539
   5979,   174.620987,   185.510574
   5980,   156.180649,   181.797318
   5981,   138.435944,   187.932083
   5982,   123.827583,   186.545456
   5983,   111.656563,    191.07547
   5984,   92.2895126,   186.883682
   5985,   77.5619125,   186.836502
   5986,   64.8748627,   177.969131
   5987,   49.1043129,   184.940948
   5988,   196.021057,   205.474731
   5989,   186.353378,    203.64621
   5990,   175.423294,   195.426651
   5991,   141.872086,   197.231583
   5992,   121.670815,   201.742996
   5993,   109.561096,   200.649048
   5994,   93.2235641,   200.157425
   5995,   76.9479065,   200.778137
   5996,   61.7013016,   199.921326
   5997,   51.8999214,   199.123657
   5998,   36.3267632,   201.995972
   5999,   18.9582348,   201.507294
   6000,    232.40004,   220.927582
   6001,    214.03923,    219.49617
   6002,   197.893677,   217.176453
   6003,   191.540237,    217.72551
   6004,   179.499023,   216.302017
   6005,   153.215927,   213.071121
   6006,   140.085815,   215.041855
   6007,   123.300171,   216.655777
   6008,   107.460258,    217.16925
   6009,   91.9054947,   217.077469
   6010,   81.1546936,     216.5345
   6011,   61.3025246,   219.054611
   6012,   50.2836952,   208.071198
   6013,   40.4474182,   218.292206
   6014,   232.610901,   240.368195
   6015,   198.386261,   230.639435
   6016,   192.242004,    234.86969
   6017,    175.97995,   233.655991
   6018,   159.631653,   230.333038
   6019,   137.195694,   231.712311
   6020,   122.930229,   232.962753
   6021,   107.076538,   233.339493
   6022,   90.1031494,    232.88472
   6023,   71.5439529,   232.075012
   6024,   65.5180435,   234.292145
   6025,   43.1399345,   234.618927
   6026,   34.6328354,    232.08429
   6027,   19.7112637,   230.370255
   6028,   233.089325,   250.112274
   6029,   216.761368,   249.751617
   6030,   202.456604,    251.82103
   6031,   189.544861,    255.10498
   6032,   172.152634,   251.468903
   6033,   154.908295,   247.034103
   6034,    138.43248,   249.168945
   6035,    124.32814,   247.778915
   6036,   108.389519,   251.876923
   6037,   94.8084869,   242.127731
   6038,     81.18367,   245.104813
   6039,    65.793808,   246.684052
   6040,   49.8646965,   248.242569
   6041,   31.7991714,   246.238541
   6042,   233.849915,   269.475952
   6043,   202.898666,   265.817932
   6044,   187.066299,   269.617462
   6045,    172.22818,   267.024384
   6046,   155.647247,   264.118347
   6047,   145.255341,   266.590942
   6048,   124.826622,   266.038361
   6049,   116.985031,   265.342712
   6050,    98.413681,   259.623779
   6051,   78.1623535,   260.154694
   6052,   59.6486206,   264.135681
   6053,   45.7712898,   256.264923
   6054,   35.1212654,   263.307098
   6055,   234.043518,   279.008087
   6056,   218.204041,   276.394989
   6057,   201.976257,   280.986572
   6058,   185.826813,   283.923767
   6059,   171.674835,   280.203674
   6060,    156.81369,   281.286285
   6061,   141.609482,    282.83197
   6062,   121.944267,   277.625488
   6063,   113.607071,   280.221863
   6064,   96.0550079,    281.25238
   6065,    76.396843,   277.796722
   6066,   60.8446312,   279.984833
   6067,   53.9256516,   279.690277
   6068,   36.6665154,    277.53833
   6069,    17.174715,   275.903503
   6070,   233.775864,   297.739044
   6071,      217.375,   293.357452
   6072,    200.28067,   295.578979
   6073,   184.180618,   296.749725
   6074,   169.642914,   292.847534
   6075,   160.869995,   297.681091
   6076,   145.516312,   296.072357
   6077,   109.265625,   299.302399
   6078,   94.0210648,   294.816284
   6079,   78.2860489,   293.577667
   6080,   62.2650986,   293.687378
   6081,   47.4007225,    291.19162
   6082,   38.8170013,   293.304962
   6083,   15.3009014,   293.079376
   6084,   233.130188,    306.94101
   6085,   214.783279,   309.131073
   6086,   194.250702,   313.984406
   6087,   183.255859,   306.934784
   6088,   172.984894,   308.924927
   6089,   159.650085,   312.935394
   6090,     146.7836,    312.13382
   6091,   121.509674,   308.206543
   6092,   105.036636,   309.377808
   6093,   93.8510437,   309.354675
   6094,   79.0619659,   308.730896
   6095,   71.0250015,   308.503662
   6096,   43.5269928,   302.573822
   6097,   32.4200211,   309.218781
   6098,   17.0556393,   310.965515
   6099,   229.990601,   324.674713
   6100,   209.414291,   323.135803
   6101,   197.922394,   323.840485
   6102,   187.251419,    333.63147
   6103,   171.169403,   325.355621
   6104,   155.130173,   328.355347
   6105,   138.603256,   325.993713
   6106,    120.05291,   325.528625
   6107,   104.128586,   324.133484
   6108,   87.3808823,   324.579559
   6109,   60.4135971,   327.615692
   6110,   31.0072727,   325.344177
   6111,   226.435333,   344.504089
   6112,   199.415558,   334.605347
   6113,   186.563858,   343.916321
   6114,   175.034546,   342.921997
   6115,   154.982666,   345.705872
   6116,   137.679794,   342.461731
   6117,   119.639374,   336.794678
   6118,   108.743019,   345.407043
   6119,   94.8506165,   341.015686
   6120,   77.9473648,   339.723877
   6121,   60.6175613,   345.863556
   6122,   44.6654587,    337.82254
   6123,   32.0403671,   341.127686
   6124,   230.712204,    362.40506
   6125,   210.472137,   356.846497
   6126,   170.682541,   356.881622
   6127,   154.018326,   362.109985
   6128,   138.588821,   357.505493
   6129,   119.240723,   354.829895
   6130,   107.370949,   357.061371
   6131,   93.4807129,   356.943054
   6132,   76.6547089,   357.543518
   6133,   46.2100945,   352.893555
   6134,   31.4329433,   356.120056
   6135,   16.4088917,   353.962067
   6136,   213.954132,   375.057098
   6137,    201.88089,   373.238739
   6138,   189.899811,   375.589142
   6139,   172.163528,   376.035065
   6140,   154.940826,   371.330811
   6141,   137.381516,    374.49585
   6142,   121.627464,   370.675903
   6143,   107.783958,   364.152771
   6144,   94.5002365,   371.778229
   6145,   78.0309143,   375.838593
   6146,   60.6045799,   372.677338
   6147,   40.8633881,   370.617767
   6148,   29.4859142,    371.24527
   6149,   15.1771584,   369.792908
   6150,   233.814957,   389.957489
   6151,   218.254379,   398.679474
   6152,   204.684357,   386.927429
   6153,    187.93959,   392.247192
   6154,   168.711227,   387.308807
   6155,   156.531937,   382.065247
   6156,   141.205887,   391.045044
   6157,   124.116089,    387.41095
   6158,   106.487595,   381.490875
   6159,   91.7488403,   387.147156
   6160,   79.2727203,   393.843109
   6161,   65.6248322,   389.493347
   6162,    48.666584,   385.747833
   6163,   31.6176739,   386.511322
   6164,   20.1648159,   385.016205
   6165,     233.6577,   407.434753
   6166,   211.003601,   406.108551
   6167,   204.817993,   406.540436
   6168,   187.529129,   404.527588
   6169,   174.563324,    403.39325
   6170,    156.24324,   399.070251
   6171,   139.380722,   407.289429
   6172,   125.825783,   395.786011
   6173,     110.4151,   400.928467
   6174,   92.1435089,   401.761627
   6175,   73.5812912,   397.275238
   6176,   61.4947891,   397.012085
   6177,   42.0760536,   396.837952
   6178,   26.6565628,   400.924683
   6179,   16.7546883,   402.821777
   6180,   229.047211,    422.37146
   6181,   201.092407,   421.421844
   6182,   190.220032,   419.624908
   6183,   168.035461,   416.519531
   6184,   156.985413,    419.51059
   6185,   139.205948,   416.007111
   6186,   122.480804,   417.124573
   6187,   106.108414,   420.282349
   6188,   92.1258011,   416.675476
   6189,   60.6410294,   414.547729
   6190,   33.6229477,   415.837311
   6191,    16.525938,   417.467682
   6192,   227.093094,   433.297607
   6193,   201.119049,   430.891785
   6194,   181.971008,   430.699158
   6195,   142.611313,   432.916138
   6196,   125.701385,   430.433319
   6197,   90.0806885,   431.465607
   6198,   61.0713387,   432.265625
   6199,   32.2335472,   432.792816
   6200,    234.79097,   96.4325943
   6201,   237.283188,   96.4034958
   6202,   194.646942,   95.7128754
   6203,   179.639877,   95.7120743
   6204,   132.219589,   96.1410828
   6205,   139.705307,   95.8704605
   6206,   147.140579,    95.829361
   6207,   154.641022,   95.7732697
   6208,   159.647934,   95.7352829
   6209,   167.141098,   95.7149277
   6210,    172.13533,    95.717308
   6211,   187.142044,   95.7056732
   6212,   197.144241,   95.7155914
   6213,   204.614975,   95.7180405
   6214,   207.099274,   95.7191086
   6215,   214.553833,   95.7550659
   6216,   217.046997,   95.7987747
   6217,   224.602066,   96.0984039
   6218,   227.144135,   96.2372742
   6219,   244.967056,   98.1509628
   6220,    122.13562,    96.617836
   6221,   124.729012,   96.5159836
   6222,   127.221878,   96.4108963
   6223,   219.550262,   95.8748322
   6224,   222.071732,   95.9829407
   6225,   202.127945,   95.7174377
   6226,   209.582138,   95.7226791
   6227,   184.640076,   95.7078018
   6228,   164.646118,   95.7161789
   6229,   169.638611,   95.7157288
   6230,   137.214584,   95.9284592
   6231,   152.137466,   95.7961655
   6232,   129.723145,   96.2854538
   6233,   134.720825,   96.0258865
   6234,   142.185913,   95.8465424
   6235,   144.659943,   95.8379211
   6236,   149.641968,   95.8186874
   6237,   157.147552,   95.7526627
   6238,   162.152405,   95.7235565
   6239,   174.636597,   95.7170258
   6240,   177.136292,   95.7142792
   6241,   182.139999,   95.7107315
   6242,    189.64296,   95.7080994
   6243,   192.144608,   95.7108536
   6244,   199.636276,   95.7170334
   6245,   212.066208,   95.7334976
   6246,   229.700455,   96.3666916
   6247,   232.257782,   96.4458466
   6248,   239.778915,   96.5624466
   6249,   242.285355,   97.3452148
   6250,   240.908661,   101.034607
   6251,   117.013443,    102.49054
   6252,   201.783081,   98.0562286
   6253,   164.392548,   98.0410309
   6254,   146.913513,    98.303772
   6255,   132.195389,   98.9431915
   6256,   137.129883,   98.4852753
   6257,   151.916183,   98.2070007
   6258,   159.421631,   98.0730286
   6259,   206.722641,   98.0612793
   6260,    237.21109,    99.445076
   6261,   186.832947,   98.0263138
   6262,   171.850876,   98.0424118
   6263,   196.820282,   98.0471725
   6264,   216.576111,    98.194458
   6265,   226.698532,   99.0756378
   6266,   124.711555,   99.7117538
   6267,   221.578766,   98.5158005
   6268,   176.845718,   98.0377655
   6269,   191.830627,   98.0320435
   6270,   211.646988,   98.0833893
   6271,    232.01712,   99.6026764
   6272,    184.33551,   98.0307388
   6273,   156.926025,    98.107338
   6274,   169.359268,    98.041275
   6275,   194.325302,   98.0416031
   6276,   224.120865,   98.7846832
   6277,   234.690018,   99.6706696
   6278,   139.587479,   98.3882523
   6279,   154.427658,    98.153923
   6280,    166.87468,    98.039772
   6281,   179.344727,   98.0355453
   6282,   204.253143,   98.0591507
   6283,   209.184067,   98.0685196
   6284,   214.106461,   98.1247253
   6285,   127.184532,   99.5280457
   6286,   219.060104,   98.3312073
   6287,   199.302536,   98.0534668
   6288,   181.840195,   98.0350494
   6289,   161.916214,   98.0526962
   6290,    134.67041,    98.691246
   6291,   149.420731,   98.2658844
   6292,   129.705139,   99.2517776
   6293,   144.446823,   98.3319702
   6294,   142.019791,   98.3541794
   6295,    174.34816,   98.0437241
   6296,   189.328949,   98.0303955
   6297,   229.340302,   99.4049072
   6298,   119.195267,   96.7885818
   6299,   244.016373,   104.781898
   6300,   171.566956,   100.397003
   6301,   216.078644,    100.59111
   6302,   188.998886,   100.377159
   6303,   176.548737,   100.389229
   6304,   221.006561,   101.008499
   6305,   174.055664,   100.400269
   6306,   191.490814,   100.384262
   6307,   156.760498,   100.464561
   6308,   169.084396,   100.395416
   6309,   144.276016,    100.92247
   6310,   218.522903,   100.757339
   6311,   141.889664,   100.947014
   6312,   179.039536,   100.386589
   6313,   186.504608,   100.381256
   6314,   181.527771,    100.38652
   6315,   184.012817,   100.388069
   6316,   203.872299,   100.426819
   6317,    159.24501,   100.422058
   6318,   166.614639,   100.393158
   6319,   193.983047,   100.394409
   6320,   198.947357,    100.41568
   6321,   201.411057,   100.424469
   6322,   161.709122,   100.400017
   6323,   164.161499,   100.394722
   6324,   196.468323,   100.408058
   6325,   206.324081,   100.431786
   6326,   213.645309,   100.507156
   6327,   154.274292,   100.534042
   6328,   146.752594,     100.8535
   6329,   211.212646,   100.460991
   6330,   208.771118,   100.442039
   6331,   151.771591,   100.630577
   6332,   149.266602,   100.747322
   6333,   223.517334,   101.400597
   6334,   234.753326,   103.213791
   6335,   139.542191,   100.957375
   6336,   226.095627,   101.905113
   6337,   231.706924,   103.007408
   6338,   228.826462,    102.51001
   6339,   137.162079,   101.066864
   6340,   134.774033,   101.384621
   6341,   129.866364,   102.298874
   6342,   127.213928,   102.759819
   6343,   122.312508,   99.7156296
   6344,   239.227173,   99.0977173
   6345,   141.763535,   103.719368
   6346,   139.510773,   103.587181
   6347,   225.278748,   104.623215
   6348,   222.793274,   103.955956
   6349,   132.773254,    104.76487
   6350,   156.651489,   102.821037
   6351,   154.194595,   102.898994
   6352,   208.355804,   102.841232
   6353,   205.910919,   102.840042
   6354,   193.618835,   102.778854
   6355,   168.802109,   102.811371
   6356,   166.353989,   102.808296
   6357,   196.094559,   102.803101
   6358,   178.716248,   102.787819
   6359,   181.189148,   102.791061
   6360,   176.237259,   102.801414
   6361,   183.666046,   102.790108
   6362,   173.752823,   102.813957
   6363,    171.27034,   102.826004
   6364,    201.01796,   102.832672
   6365,   191.130875,   102.772842
   6366,   163.932327,   102.800598
   6367,   210.781052,   102.870316
   6368,   186.151871,   102.782669
   6369,   188.639832,   102.778694
   6370,   144.168793,   103.676384
   6371,   151.716446,   103.038315
   6372,   217.976532,   103.146736
   6373,    198.55957,   102.825554
   6374,   220.392929,   103.453445
   6375,   203.463043,   102.840584
   6376,   161.521805,   102.791267
   6377,   159.102859,   102.793068
   6378,   228.007324,   105.590118
   6379,   231.054123,   106.635475
   6380,   137.291473,   103.549828
   6381,   213.188492,   102.926353
   6382,   215.593719,   103.018188
   6383,   149.212067,   103.239853
   6384,   146.693756,   103.476959
   6385,   237.891891,   102.849442
   6386,   130.262161,   105.445282
   6387,   124.485596,   103.042999
   6388,   139.179718,   106.328293
   6389,   135.909195,   106.682922
   6390,   224.234222,   107.161545
   6391,   141.543961,   106.865044
   6392,   226.702164,   108.546799
   6393,   219.781204,    105.76841
   6394,   221.939178,   106.482101
   6395,   154.170029,   105.215378
   6396,   217.511749,   105.543114
   6397,    151.76944,   105.383095
   6398,   207.948196,   105.312973
   6399,    210.37114,   105.375069
   6400,   156.573441,   105.158295
   6401,   205.494614,   105.302193
   6402,   166.082642,   105.319321
   6403,   193.227081,   105.214188
   6404,   163.697372,    105.29599
   6405,   190.756027,   105.199654
   6406,   188.274567,   105.207687
   6407,   185.782211,   105.231216
   6408,     168.5056,   105.336975
   6409,   161.330551,    105.24369
   6410,   173.443893,   105.313179
   6411,   170.965042,   105.343452
   6412,    178.37146,   105.280716
   6413,   175.916885,   105.302727
   6414,     203.0504,   105.308144
   6415,   180.820435,   105.279198
   6416,   183.289658,   105.265869
   6417,   158.963806,   105.183067
   6418,   195.689743,   105.253784
   6419,   198.152695,   105.290306
   6420,   212.771454,   105.442436
   6421,   144.174072,   106.602882
   6422,    149.31366,   105.689644
   6423,    215.18248,   105.509857
   6424,   146.816071,   106.118271
   6425,   238.786606,   107.239922
   6426,   234.602234,   107.431297
   6427,   127.492142,   105.973434
   6428,   120.091591,   105.891922
   6429,   137.889526,   109.062378
   6430,   223.228531,   109.227234
   6431,   217.321365,   108.000618
   6432,    154.21254,   107.445671
   6433,   156.494385,   107.436905
   6434,   207.549683,   107.876564
   6435,   205.080673,   107.824135
   6436,   158.786942,   107.575317
   6437,   151.952774,   107.627319
   6438,   168.202164,   107.983315
   6439,   190.370316,   107.657852
   6440,   165.790985,   107.984001
   6441,   192.813126,   107.698044
   6442,   212.433487,   108.113533
   6443,   170.665222,   107.960007
   6444,   163.425034,    107.91404
   6445,   185.420578,   107.713806
   6446,   161.095383,   107.761993
   6447,   195.260452,   107.764389
   6448,   175.609909,   107.892296
   6449,   178.022888,   107.891106
   6450,   180.446976,   107.863167
   6451,   182.922516,   107.799362
   6452,   200.205368,   107.856972
   6453,   197.733368,   107.835831
   6454,   214.950562,   108.159393
   6455,   149.614334,   108.012077
   6456,   147.256088,   108.629272
   6457,   130.833542,   108.782784
   6458,   229.595551,   110.377327
   6459,   127.595291,   108.979774
   6460,   122.413879,   112.728966
   6461,   207.131393,   110.480537
   6462,   154.291397,   109.552582
   6463,   212.187546,   110.972038
   6464,   189.976639,   110.138084
   6465,   165.467804,    110.81588
   6466,   167.916367,   110.790871
   6467,   163.067841,    110.67392
   6468,   194.787567,   110.319382
   6469,   158.487961,   109.953941
   6470,   185.096786,   110.222786
   6471,   175.313721,   110.607269
   6472,   180.099167,   110.565742
   6473,    182.60643,    110.39122
   6474,   197.279922,   110.455399
   6475,   215.008057,   110.976791
   6476,   199.808334,   110.578545
   6477,   150.118759,   110.172867
   6478,   148.129791,   111.013191
   6479,   173.151245,   107.924644
   6480,   221.823105,   112.558746
   6481,   131.714249,   112.727989
   6482,   217.870224,   110.583916
   6483,   224.678879,   111.075348
   6484,   233.353592,    112.40284
   6485,   243.996033,    113.93898
   6486,   127.271729,   113.251442
   6487,   113.124489,   106.892197
   6488,   211.944183,    114.00872
   6489,   167.735031,   113.764847
   6490,   191.868301,   112.744087
   6491,    165.12941,   113.911324
   6492,    177.27887,   113.706917
   6493,   194.243942,   112.892189
   6494,   182.426239,   113.020775
   6495,   179.860641,   113.424889
   6496,   199.355881,   113.445557
   6497,   146.599472,   114.073135
   6498,   209.013489,   113.670235
   6499,   187.907578,   107.671967
   6500,   144.588425,   109.516953
   6501,   204.579147,    112.36702
   6502,   135.370316,   111.384178
   6503,   170.271011,   113.385429
   6504,     149.5979,   113.556885
   6505,   160.085907,    112.99276
   6506,   172.887329,   110.575638
   6507,    218.60437,   113.604393
   6508,   189.570435,   112.624466
   6509,   187.261978,    112.58786
   6510,   156.021805,   111.560791
   6511,    215.22789,   114.085449
   6512,   235.013275,   122.270271
   6513,   227.018204,   113.675224
   6514,   121.861839,   118.616341
   6515,   133.065308,   116.990761
   6516,   211.587784,   117.240891
   6517,      167.903,    117.00325
   6518,   193.651154,   115.458603
   6519,   176.802002,   117.550346
   6520,    182.53009,    115.67054
   6521,   198.363556,   116.315239
   6522,   149.790848,   116.286537
   6523,   162.548096,   113.608406
   6524,   202.382187,   113.877747
   6525,   187.005005,   114.978394
   6526,    145.84584,   111.912689
   6527,   223.471329,   115.873276
   6528,   152.596954,   111.887787
   6529,   170.595291,   116.087227
   6530,   215.413528,   117.479141
   6531,    191.31163,   115.361076
   6532,   208.216217,   116.631531
   6533,   184.741196,   115.109108
   6534,   172.652603,   113.142502
   6535,   157.896576,   112.246239
   6536,   219.477417,   117.101509
   6537,   143.950714,   113.474915
   6538,    225.41391,   119.817612
   6539,   127.811165,   117.993752
   6540,   138.249634,    115.44442
   6541,   107.568993,   113.607658
   6542,   164.800705,   117.457268
   6543,   180.693497,   118.438835
   6544,   196.721436,   119.008362
   6545,   211.041382,   120.716782
   6546,   189.106796,   115.136482
   6547,   188.422836,   117.661461
   6548,   202.289047,   110.567184
   6549,    200.90892,   117.337761
   6550,   156.791382,   114.273354
   6551,   146.706451,   116.691322
   6552,   193.240967,   118.196198
   6553,   184.946609,   117.042519
   6554,   205.216431,   115.638474
   6555,   207.195801,    119.85704
   6556,   174.089203,   116.253342
   6557,   220.295181,   121.001556
   6558,   134.464996,   121.624443
   6559,   215.477936,   121.203773
   6560,   159.033386,   115.475967
   6561,    172.47998,   115.210579
   6562,   152.959808,     114.1595
   6563,   227.151199,   124.723595
   6564,   143.040375,   116.503448
   6565,   100.632988,   120.686157
   6566,   129.270035,   122.905579
   6567,   189.858368,   121.081963
   6568,    203.85347,   118.675926
   6569,   168.839096,    120.25206
   6570,   193.752457,   121.554184
   6571,   183.280258,   118.749367
   6572,   205.952789,   123.355431
   6573,   174.000366,   120.728516
   6574,   136.317139,   126.367645
   6575,   150.807617,   118.927132
   6576,   153.432739,   117.694946
   6577,   171.087692,   123.149551
   6578,     220.7901,   125.390671
   6579,   160.362198,   119.367737
   6580,   143.564346,   120.254723
   6581,   227.198547,    130.98465
   6582,   126.629036,   129.853714
   6583,   139.199615,   120.697952
   6584,    186.63063,   119.869247
   6585,   197.150116,    123.35495
   6586,   152.617706,   121.703712
   6587,   210.290436,   124.412605
   6588,   178.935211,   120.408714
   6589,   145.072174,     124.1745
   6590,   220.474976,   130.310654
   6591,   147.465057,   119.779175
   6592,   157.539398,   117.659569
   6593,   162.027039,   125.760735
   6594,   138.612274,   130.882217
   6595,   176.568008,   123.310707
   6596,   199.176453,   120.452438
   6597,   117.713531,   126.708435
   6598,   131.522644,   127.939659
   6599,   232.691528,   140.049667
   6600,     159.5233,   125.197914
   6601,   149.003662,   123.134445
   6602,   179.654617,   125.615898
   6603,   181.751694,   122.153412
   6604,   198.607895,   127.706268
   6605,   192.103516,   125.548233
   6606,   134.293793,   132.745407
   6607,   168.335297,   125.171791
   6608,   209.367096,   128.226105
   6609,   184.986877,   123.507698
   6610,   142.963135,   129.415588
   6611,   121.890053,   132.464615
   6612,   163.647568,   127.538788
   6613,    165.96524,   126.603912
   6614,   200.586746,   124.946953
   6615,   202.359741,   121.924789
   6616,   214.541885,   129.362793
   6617,   190.845062,    129.57402
   6618,    187.00647,   128.662018
   6619,   151.032959,   126.618973
   6620,   147.115356,   128.093979
   6621,   141.203171,     135.1008
   6622,   183.222092,   127.393188
   6623,   122.279564,    140.26622
   6624,   130.107391,    134.94046
   6625,   204.880753,   130.789703
   6626,   167.268906,   130.258026
   6627,   156.728607,   128.712555
   6628,   177.212692,   129.394379
   6629,   170.916992,   128.870697
   6630,   137.470795,    137.31337
   6631,   145.313858,   133.519241
   6632,   198.489883,   134.138275
   6633,   208.229492,    132.32373
   6634,   190.045395,   133.919785
   6635,   185.724518,     132.9935
   6636,    153.13446,    130.32518
   6637,   112.113075,   131.159683
   6638,   119.393524,   144.437408
   6639,   155.707825,   133.776581
   6640,   174.024017,   133.690109
   6641,   160.064178,   127.656784
   6642,   194.309723,   134.395508
   6643,   200.827621,   129.626251
   6644,   149.570084,   132.180893
   6645,    113.81144,   119.075134
   6646,   205.359894,   136.999832
   6647,   168.472809,   134.415466
   6648,   213.233124,   133.815704
   6649,   137.260437,   144.773773
   6650,   113.721207,   141.007767
   6651,   124.755562,   147.210159
   6652,   179.647446,   135.921844
   6653,   147.265259,   137.489197
   6654,   164.097565,   138.496918
   6655,   184.647552,   137.489822
   6656,   211.358521,    138.25383
   6657,   158.666733,   132.001068
   6658,   130.611023,   142.919907
   6659,   143.584763,    148.02713
   6660,   152.764359,   137.205444
   6661,   117.315796,    149.51445
   6662,   199.587524,    138.54425
   6663,   178.592941,   140.768753
   6664,   168.774475,   138.619705
   6665,   147.141617,   140.829239
   6666,   194.456711,    138.92157
   6667,   145.488693,   144.238388
   6668,    136.14418,     150.0522
   6669,   130.262802,   148.592331
   6670,   183.747238,   142.295151
   6671,   219.103088,   135.577026
   6672,   107.446915,   137.115036
   6673,   162.437515,   143.625107
   6674,   149.144379,   150.222321
   6675,   177.528198,   145.696014
   6676,    189.04213,   143.402069
   6677,   135.121231,   155.330215
   6678,   156.120941,   148.561768
   6679,   222.285614,   143.898682
   6680,    142.17009,   152.337936
   6681,   145.382309,   158.253036
   6682,    168.32608,   142.574219
   6683,   182.772476,   147.354904
   6684,   157.743881,   144.092896
   6685,    194.58371,   143.901611
   6686,   172.712158,   143.980835
   6687,    217.21521,   149.606812
   6688,   225.515213,   137.703552
   6689,    171.23703,   148.136902
   6690,     159.8004,   147.812256
   6691,   188.444595,   148.668991
   6692,   200.257477,   143.666809
   6693,   146.272797,   162.707504
   6694,   148.652115,   155.362991
   6695,   176.010147,   150.382767
   6696,   159.159225,   139.602081
   6697,   153.407227,   151.272263
   6698,   154.564438,   154.992508
   6699,   200.945023,   149.484177
   6700,   162.314087,   146.705795
   6701,   194.193588,   155.077591
   6702,   181.386719,   152.477249
   6703,   194.569199,   149.402206
   6704,   151.595261,   161.389969
   6705,    166.96077,   145.913757
   6706,   179.274597,   157.606628
   6707,   207.397751,   148.298111
   6708,   147.461746,   168.778564
   6709,   162.450699,    151.46138
   6710,   165.233536,   148.982132
   6711,    173.77858,   154.842773
   6712,   153.898163,   166.573624
   6713,   140.132568,   167.981354
   6714,   162.143127,   157.924469
   6715,   212.945602,   145.274933
   6716,   194.310349,   161.690887
   6717,    139.60733,   174.127457
   6718,   166.081375,   155.207214
   6719,   210.070923,   154.780045
   6720,   134.334091,   160.917435
   6721,   170.508179,   159.150604
   6722,    175.84462,   162.982635
   6723,   157.051483,   159.954971
   6724,   151.599533,   172.310822
   6725,   189.565872,   168.703964
   6726,   191.225128,   177.904007
   6727,   159.929474,    165.15036
   6728,   165.954086,   162.855972
   6729,    139.72319,   180.245087
   6730,   145.468842,   180.437195
   6731,   133.246292,   173.690231
   6732,   187.279373,   182.924042
   6733,   162.284882,    170.57428
   6734,   125.672371,   179.497147
   6735,   156.611847,   176.493484
   6736,    133.10733,   182.062561
   6737,   162.738007,   176.447235
   6738,   118.846275,   177.252289
   6739,   161.914246,   182.606644
   6740,   120.099525,   170.284164
   6741,   117.333687,   183.959946
   6742,   165.750916,    190.21257
   6743,   127.450111,   165.453247
   6744,   157.706818,   195.331329
   6745,   122.107002,   157.446426
   6746,   115.749313,   155.331741
   6747,   113.635704,   168.368057
   6748,   150.381317,   186.435745
   6749,   169.676834,   197.170135
   6750,   162.739014,   204.027618
   6751,   150.779648,   181.129272
   6752,   151.221039,   192.557755
   6753,   178.856186,   171.914124
   6754,   191.697037,   186.743973
   6755,     171.0271,   191.818481
   6756,   229.094315,   147.911087
   6757,   151.069305,   176.207947
   6758,    242.15242,   132.554947
   6759,   128.277679,   159.394638
   6760,   104.209023,   143.694702
   6761,   100.498764,   132.872543
   6762,   107.068352,    166.85408
   6763,   21.4435081,   159.432571
   6764,   129.920883,   189.309052
   6765,   240.767029,   142.350174
   6766,   222.975098,   154.403442
   6767,   205.596451,   160.936966
   6768,   182.628555,   165.902679
   6769,   240.752213,   163.929749
   6770,   242.086288,   173.570038
   6771,   242.249298,   192.521408
   6772,   241.865189,   202.100861
   6773,   241.338104,   221.589188
   6774,   241.302231,   231.366119
   6775,   241.564148,   250.921661
   6776,   241.766464,   260.739838
   6777,   242.053146,   280.291504
   6778,   241.552765,   309.327759
   6779,   236.743927,   339.617889
   6780,    241.08252,   370.866699
   6781,   239.232773,   440.084198
   6782,   242.071838,   290.011932
   6783,   231.871124,   315.999908
   6784,    239.05632,   351.176788
   6785,   241.617599,   380.519043
   6786,   242.047562,   399.642334
   6787,   241.691345,   409.085175
   6788,   237.292099,   429.078003
   6789,    237.98735,   153.365891
   6790,   242.463196,   182.995697
   6791,   241.533264,   211.803375
   6792,   241.407761,   241.127823
   6793,   241.957916,   270.531494
   6794,   241.923096,   299.678436
   6795,   239.461716,   328.793701
   6796,   240.262604,   361.211243
   6797,   241.967743,   390.143616
   6798,    240.49527,   418.602509
   6799,   200.206741,   166.386047
   6800,   219.737396,   442.249847
   6801,   8.76070213,   310.968628
   6802,   7.62653875,    291.56662
   6803,   9.86342907,   220.540421
   6804,   9.60500336,   200.769302
   6805,   9.74040222,   190.672516
   6806,   210.458847,   441.129822
   6807,   190.567505,   440.339905
   6808,   180.682571,   440.074768
   6809,   160.813049,   440.183411
   6810,   151.125076,   441.036011
   6811,   134.023834,   432.139832
   6812,   100.350777,   439.782104
   6813,    80.370079,   440.792267
   6814,   70.5510406,   440.965759
   6815,   50.7657089,   441.364288
   6816,    40.906868,   441.412476
   6817,   20.9660854,     440.7547
   6818,   11.7467709,   429.326691
   6819,   8.14713573,   410.031036
   6820,    8.8258791,   400.677185
   6821,   8.86745453,   379.753235
   6822,   7.75413561,   370.119873
   6823,   8.24063587,   351.622345
   6824,   9.61027718,   342.206665
   6825,   10.1921434,   320.874908
   6826,   7.86030912,   281.974213
   6827,   10.3305273,    263.03363
   6828,   13.5320578,   252.826233
   6829,   10.2110376,   230.451477
   6830,   10.5994053,   170.090897
   6831,   10.6843767,   159.793945
   6832,   200.510529,   440.529663
   6833,   170.659637,   439.493622
   6834,   141.350418,   441.339264
   6835,   111.713425,   437.609344
   6836,    90.191597,   440.544128
   6837,   60.6378632,   441.178192
   6838,   31.0319309,    441.26535
   6839,   8.71759224,   419.195953
   6840,   11.3151045,   390.301636
   6841,   7.67255211,   360.830261
   6842,   12.6132994,   332.050232
   6843,   15.7445459,   302.078827
   6844,   8.69683552,   272.492004
   6845,   11.2262239,   240.875931
   6846,   9.67649364,   210.727982
   6847,   10.1426182,   180.419556
   6848,   169.583084,   176.735931
   6849,   116.542625,   189.577271
   6850,   242.955139,   123.120705
   6851,   85.5413818,   136.972565
   6852,   55.1855888,   150.436417
   6853,   64.5870819,   145.507187
   6854,   109.181725,   153.057663
   6855,   196.011612,   191.241089
   6856,   168.041443,    183.69577
   6857,   133.735107,   166.974762
   6858,   141.064407,   184.784302
   6859,   195.439209,   172.319702
   6860,   10.5998535,   439.917755
   6861,   144.296356,   191.155472
   6862,   232.386047,   167.085464
   6863,   196.383408,   181.844513
   6864,   101.229294,   158.267853
   6865,   171.252167,   427.213562
   6866,   148.542999,   200.496582
   6867,   162.728561,   211.979767
   6868,   121.184433,   194.056732
   6869,   19.3690777,   211.380661
   6870,   205.637054,   170.792175
   6871,   41.7432709,   432.845367
   6872,   18.0996857,   346.172516
   6873,   114.834747,   196.802933
   6874,   183.178116,   187.255264
   6875,   232.339951,   415.496155
   6876,   19.8304939,    181.28154
   6877,   151.540909,   432.448151
   6878,    210.83815,   165.327576
   6879,   224.663559,   304.283478
   6880,   19.2033291,   319.699066
   6881,   221.461929,   165.039047
   6882,   233.354858,   201.571945
   6883,   99.6325989,   166.943451
   6884,    93.283989,   128.077438
   6885,   226.835495,   332.237823
   6886,   23.7403393,   286.874634
   6887,   181.349701,   194.255966
   6888,   232.334442,   230.711487
   6889,   17.6378021,   423.559143
   6890,   86.0867386,    147.96489
   6891,    23.187624,   261.669128
   6892,   80.6536255,   431.189819
   6893,   232.008896,   371.556824
   6894,    109.07991,   182.746521
   6895,   19.9413719,   396.184204
   6896,   233.574753,   259.830414
   6897,   191.152359,   430.675049
   6898,   19.8241997,   220.957199
   6899,   51.3303223,   432.647522
   6900,   24.5286961,    364.01181
   6901,   234.048203,   398.905304
   6902,   234.044495,   288.412598
   6903,   94.6973343,    148.70311
   6904,   19.0370483,   191.568405
   6905,    160.46817,   429.996155
   6906,   234.994247,   183.430008
   6907,    21.550642,   339.714294
   6908,   222.007263,   426.725128
   6909,   220.894791,   320.489716
   6910,   23.3306923,   302.535583
   6911,   232.747574,   211.154083
   6912,   228.997955,   353.268921
   6913,   19.5671539,    268.18924
   6914,   99.3157272,   430.714203
   6915,    16.043047,   410.182556
   6916,   212.651962,   431.218201
   6917,   20.7114735,   239.922928
   6918,   233.086044,    380.81076
   6919,    70.904747,   431.648499
   6920,   16.8458214,   377.765808
   6921,   229.304565,   441.455902
   6922,   43.0143623,   169.491791
   6923,   102.308861,   150.803635
   6924,    87.258812,   156.738586
   6925,   145.386719,   185.778854
   6926,   226.094086,   277.700226
   6927,   127.604439,   195.906967
   6928,   54.7065392,   164.038834
   6929,    106.04274,   194.284515
   6930,   117.010826,   201.293762
   6931,   223.720703,   239.963211
   6932,   171.002762,   210.544998
   6933,   210.664429,    175.09938
   6934,   102.866692,   175.703476
   6935,   225.209808,   170.794067
   6936,   102.366898,   187.123703
   6937,   226.134048,   191.483124
   6938,    223.16568,   220.322983
   6939,   77.2902832,   149.978577
   6940,   225.526794,   295.581329
   6941,   224.781006,   249.661713
   6942,   28.4069996,   230.696732
   6943,   225.967651,   268.510254
   6944,   94.2559204,   162.651871
   6945,    135.65773,   193.209351
   6946,   219.860825,   435.928131
   6947,   183.650787,   199.009995
   6948,   200.319565,   196.489487
   6949,   164.487183,   220.036453
   6950,   144.995712,    208.16481
   6951,   22.5615807,   432.190033
   6952,   179.391708,   208.425949
   6953,   68.8331146,   153.472931
   6954,   227.985428,   183.362473
   6955,   146.119339,   219.840332
   6956,   132.731918,   210.362152
   6957,   193.303406,   200.263809
   6958,   89.3368073,   164.477432
   6959,   157.031952,   222.287704
   6960,   206.958389,    191.72139
   6961,   174.403717,   225.969666
   6962,   114.166206,    205.27681
   6963,   222.877411,    230.23764
   6964,   127.841705,    203.08876
   6965,   72.9175949,   161.351761
   6966,   96.3525085,   179.788849
   6967,   214.517929,   209.626587
   6968,   100.147461,   198.070786
   6969,   225.985275,   286.719788
   6970,   218.228134,   267.665253
   6971,   30.9983292,   221.657104
   6972,   225.577591,   259.161377
   6973,   224.268478,   200.612946
   6974,   92.9169693,   194.795563
   6975,   211.908051,    185.40152
   6976,   214.995743,   240.508224
   6977,   61.3364792,    169.19194
   6978,   216.336258,   301.425171
   6979,   29.2509956,   238.826477
   6980,   88.5786972,   192.516464
   6981,   93.5679016,   207.251892
   6982,   212.042435,   230.207916
   6983,   210.403946,   274.955536
   6984,   89.6874313,   179.155975
   6985,    129.53006,   218.927734
   6986,   119.739258,   207.922379
   6987,   38.4028244,   228.379562
   6988,   209.302399,   250.630524
   6989,    166.72171,   228.075027
   6990,   183.395081,   223.991196
   6991,   217.968597,   284.932068
   6992,   207.031281,   242.864563
   6993,   205.738388,   210.223053
   6994,   210.628479,   266.853241
   6995,   110.505836,   210.684097
   6996,   135.588257,   222.103745
   6997,   189.209015,   207.958755
   6998,   150.468491,   225.895096
   6999,   213.843338,   198.869919
   7000,   204.103928,   202.783646
   7001,   184.291016,   210.509644
   7002,   86.4892502,   173.835846
   7003,    184.95105,   214.630417
   7004,   83.0558929,   166.727722
   7005,    153.26062,   232.674835
   7006,    199.89653,   245.793228
   7007,   202.545624,   273.354004
   7008,   28.9615459,   211.598618
   7009,   131.925369,   229.020844
   7010,   85.0443268,   199.330093
   7011,   103.159294,   206.034409
   7012,   126.125397,   226.157455
   7013,   58.4903069,   175.220917
   7014,   206.632126,   305.585663
   7015,   36.6365585,    237.48053
   7016,   168.668365,   235.810898
   7017,   197.674225,   211.313278
   7018,   205.570328,   218.085556
   7019,   190.895142,   212.833298
   7020,   188.505692,    229.48027
   7021,   125.560532,   209.742874
   7022,    79.694931,   178.442032
   7023,   116.922516,   214.024109
   7024,    86.515686,   183.518478
   7025,   183.182434,   231.830551
   7026,   223.092133,   312.607513
   7027,   23.4869709,   248.930832
   7028,   203.179077,   258.711945
   7029,   71.6457825,   178.582993
   7030,   189.194336,   244.566025
   7031,   193.676956,   226.353317
   7032,    76.453392,   193.941269
   7033,   194.131439,   278.897217
   7034,   85.4540939,    206.81694
   7035,   196.160736,   257.902802
   7036,   197.395355,   253.105286
   7037,   120.088821,   223.378296
   7038,   29.0462532,   256.911682
   7039,   212.413925,   316.316406
   7040,   196.244217,   240.275436
   7041,   195.296921,   264.350403
   7042,   129.169617,   235.640671
   7043,   194.750504,   271.565552
   7044,   154.098068,   239.665314
   7045,   170.612457,   243.586899
   7046,   45.1743851,   209.597229
   7047,   135.788147,   238.218628
   7048,   208.190903,   298.459106
   7049,   101.124855,   214.149734
   7050,   70.3407364,   171.427048
   7051,   203.388107,   225.239655
   7052,   201.297134,   288.463623
   7053,   104.003693,   223.784241
   7054,   69.9142075,   192.992386
   7055,   193.795166,   249.550934
   7056,   70.8345337,   185.692657
   7057,    162.79686,   245.283905
   7058,   30.5371094,   267.708374
   7059,   146.263657,   240.295441
   7060,   187.881332,   262.202484
   7061,   193.494049,   286.086517
   7062,   126.460495,   242.034119
   7063,   42.6244087,   250.269272
   7064,   201.522629,   318.324249
   7065,   178.360596,   241.613602
   7066,   48.5729332,   216.088791
   7067,    132.45845,   244.727905
   7068,   196.916733,   222.454391
   7069,   217.672882,   327.944458
   7070,   116.688515,   230.058563
   7071,   76.5312958,   209.179062
   7072,   186.551407,   276.905487
   7073,   27.9218273,   201.976059
   7074,   62.5373955,   191.687561
   7075,   44.4032021,   225.200851
   7076,    181.73317,   250.620651
   7077,   113.200813,   236.715897
   7078,   179.280869,   275.121094
   7079,   179.745422,   267.972961
   7080,    36.255455,   271.481506
   7081,   222.744324,   337.647064
   7082,   117.354622,   246.022003
   7083,   69.0241089,     214.7845
   7084,   130.432755,   251.137161
   7085,   74.4154892,   221.430344
   7086,   147.125824,   248.705643
   7087,   180.357651,    260.13382
   7088,   178.627518,   282.008179
   7089,   69.7176132,   199.840607
   7090,    164.14209,   252.452072
   7091,    97.609787,    220.64238
   7092,   185.067932,   290.544098
   7093,   93.5797577,   226.684784
   7094,   39.5353889,    243.85463
   7095,   204.382568,   312.182983
   7096,   100.474236,   230.034714
   7097,   176.923126,   294.994141
   7098,   48.8612289,   230.817444
   7099,   172.446365,   259.582611
   7100,   55.6045341,   196.241623
   7101,   97.3057785,   236.029449
   7102,   80.6226578,   229.282532
   7103,   64.4096069,    208.37619
   7104,   119.834785,   239.499527
   7105,   123.718697,   252.975128
   7106,    172.56752,   273.756989
   7107,   177.783554,   288.514069
   7108,   139.515778,    257.30188
   7109,   40.7411041,   268.727844
   7110,    213.57782,   336.554321
   7111,   131.987854,   258.597504
   7112,   156.499512,   254.080734
   7113,   47.2259483,   241.255295
   7114,   103.698624,   239.062073
   7115,   66.9665909,   225.618484
   7116,   196.874329,   308.322906
   7117,   192.626053,   292.871094
   7118,   56.1800194,    211.45192
   7119,   139.516098,   263.671265
   7120,   170.660324,    286.41214
   7121,   101.604996,   244.386856
   7122,   165.075439,   277.977173
   7123,   189.972244,    304.93811
   7124,   167.110046,   273.298981
   7125,   88.2448959,   239.188858
   7126,   164.840622,    259.74649
   7127,   27.8237324,   273.334839
   7128,    80.621582,   237.997101
   7129,   57.5882034,   246.997726
   7130,   183.540085,   302.488861
   7131,   55.5303612,   203.545151
   7132,   116.525719,   259.069183
   7133,    124.44783,   259.236694
   7134,   148.673981,   258.013733
   7135,   55.7162132,   237.897888
   7136,   216.912704,   346.455933
   7137,    159.08461,   274.594513
   7138,   50.2791862,   203.212769
   7139,   86.9613113,   244.239212
   7140,   152.064529,   270.951996
   7141,   162.618393,   290.555603
   7142,   108.183105,   259.060669
   7143,   33.5624619,   283.711365
   7144,   59.2087631,   255.159515
   7145,   100.229691,   251.230377
   7146,   123.892303,   272.352966
   7147,   133.575745,   267.261658
   7148,   163.707703,   284.001556
   7149,    72.967186,   238.903687
   7150,   52.8979111,   224.097839
   7151,   176.399551,    302.16153
   7152,   65.0137405,    239.56488
   7153,     187.6642,   310.163605
   7154,   156.285385,   288.136627
   7155,    73.912262,   245.940338
   7156,   183.252487,   314.759552
   7157,    83.284256,   251.407471
   7158,   109.400307,    265.85553
   7159,   141.174759,   272.877838
   7160,   30.2256489,    296.02771
   7161,   168.876129,   299.094604
   7162,   190.963684,   319.054718
   7163,   67.4460297,   254.341797
   7164,     130.6147,   274.911469
   7165,   43.0237312,   283.431824
   7166,    111.58654,   271.902832
   7167,   179.282455,   308.501312
   7168,   44.0114403,   202.092422
   7169,   91.5593491,   248.943787
   7170,   148.338089,   278.890869
   7171,   144.140869,   288.998199
   7172,   85.7961273,   257.863129
   7173,   69.6662979,   261.983948
   7174,   30.2278805,   302.636475
   7175,   75.6351547,   253.006027
   7176,   149.849243,   287.673676
   7177,   36.1787071,   193.508286
   7178,   177.767792,   322.474945
   7179,   187.387421,   323.955231
   7180,   45.5536537,    194.08844
   7181,   116.025581,   275.502533
   7182,   98.3926926,   276.291077
   7183,   105.816643,   276.032776
   7184,   44.5758514,   274.595184
   7185,   154.292664,   300.708923
   7186,   137.187134,   278.493805
   7187,   205.134933,   329.416046
   7188,   46.3457909,   265.054962
   7189,   192.839569,   339.334198
   7190,    125.77684,   288.040833
   7191,   86.5751343,   276.678528
   7192,   73.2252197,   269.665649
   7193,   120.456566,   282.243805
   7194,   103.043701,   290.169006
   7195,    151.32373,    294.71283
   7196,   168.437698,   318.266602
   7197,   163.008026,    305.05658
   7198,   193.134109,   328.934937
   7199,    37.069809,   298.377991
   7200,   139.271667,   290.308594
   7201,    36.205246,   185.209686
   7202,   27.7609539,   192.579727
   7203,   54.1214867,   189.742065
   7204,   52.9177589,     271.3992
   7205,   43.4374886,     177.9534
   7206,   86.1769714,    285.87619
   7207,   25.0473537,   310.382172
   7208,   81.8691788,   267.696289
   7209,   163.620026,   327.850189
   7210,   180.775574,   338.181976
   7211,   147.586304,   304.114624
   7212,   130.311111,   294.171387
   7213,   112.251373,   286.380127
   7214,    94.718071,    287.81839
   7215,   40.6186752,   259.541229
   7216,   153.159561,   313.394135
   7217,   181.895401,   328.195496
   7218,   161.454086,     319.9328
   7219,   120.584579,   296.327576
   7220,   28.5643272,   182.940323
   7221,    112.38636,   309.255035
   7222,   155.863235,   336.893829
   7223,   101.761589,   296.611847
   7224,   131.362122,   304.471436
   7225,   124.650848,   303.201416
   7226,   27.6757011,      317.987
   7227,   154.088379,   320.461853
   7228,    166.68837,   337.521729
   7229,   77.6811752,   285.784027
   7230,   197.846039,   345.241028
   7231,   86.1745834,   293.839203
   7232,   181.130325,   348.610413
   7233,   205.054489,   341.220642
   7234,   68.1374359,   279.044128
   7235,   51.5292778,   254.895218
   7236,   176.078049,   353.306549
   7237,   69.5381699,   286.312714
   7238,   164.600891,   348.630157
   7239,   201.555038,   351.219391
   7240,   100.593941,   302.969116
   7241,   208.666336,    348.69516
   7242,   115.965973,   303.274811
   7243,   135.171478,   310.707031
   7244,   191.578186,    349.46756
   7245,   146.600693,   335.538361
   7246,   86.3267059,   301.457123
   7247,   22.4171524,   327.981628
   7248,   50.6318321,   260.488251
   7249,   35.7193947,   316.031586
   7250,   186.357712,     354.0784
   7251,   139.817062,   318.432007
   7252,    65.115448,   271.608826
   7253,   130.790649,   323.462219
   7254,   195.896698,   354.756256
   7255,   160.532791,   356.984283
   7256,   27.4030094,   335.283539
   7257,   70.6283493,   301.142456
   7258,   181.186584,   359.305328
   7259,   78.6320038,   301.231384
   7260,    146.75914,   327.614197
   7261,   123.848846,   319.091492
   7262,   146.202728,   343.619476
   7263,   117.703949,   314.494324
   7264,   93.6211777,   302.028473
   7265,   219.278763,   355.380859
   7266,   100.213875,   309.510834
   7267,   203.794479,   356.491028
   7268,   59.9333305,   274.335144
   7269,   94.6540833,   316.926666
   7270,   86.6237259,   309.094788
   7271,   199.315689,   361.490082
   7272,   112.625824,    321.38385
   7273,   191.729904,   358.875641
   7274,   48.3942604,   285.890076
   7275,   54.7894325,   286.392517
   7276,   127.593407,   332.489441
   7277,   175.153793,   364.299774
   7278,   34.6192703,   332.418396
   7279,   62.1828613,   300.984863
   7280,   137.554794,   334.034637
   7281,   152.553574,   354.958038
   7282,   166.210159,   360.312927
   7283,   209.476273,   366.254089
   7284,   220.726028,   364.158142
   7285,   62.1513367,   308.460052
   7286,   159.116821,   364.506348
   7287,    54.636364,   292.970856
   7288,   71.5085678,   315.915833
   7289,    87.026474,   316.797882
   7290,    27.796339,   344.809937
   7291,   101.735901,   316.349304
   7292,    222.77948,   372.855865
   7293,   166.892242,    368.15097
   7294,   196.345551,   379.577606
   7295,   107.956474,   314.138214
   7296,    146.66185,   360.459076
   7297,   114.674194,   329.709961
   7298,   181.047623,   372.252472
   7299,   45.9151917,    296.94809
   7300,   206.747757,   378.904541
   7301,   140.872406,   364.233246
   7302,    30.103653,   351.610901
   7303,   201.191971,   383.669769
   7304,   174.986298,   383.874023
   7305,   209.752304,   385.256683
   7306,   183.454407,   387.343567
   7307,   63.3624916,   316.101837
   7308,   192.246216,    386.06543
   7309,   149.908295,   366.301636
   7310,   129.879242,   342.770813
   7311,   61.8283043,   286.637604
   7312,   106.135857,    333.73465
   7313,   95.6025696,   324.831665
   7314,   224.596512,   381.678986
   7315,   160.904007,   375.272369
   7316,   79.3301392,    324.05603
   7317,   53.7346611,   299.989136
   7318,   145.107376,   351.140076
   7319,   131.398468,   351.304962
   7320,   134.837204,   366.823914
   7321,   177.843811,   391.217133
   7322,   210.397842,   392.244659
   7323,   24.9624386,   349.649597
   7324,   113.088921,   340.730988
   7325,   95.8945618,   332.965088
   7326,   144.116241,   371.224335
   7327,   32.8757668,   348.836029
   7328,   87.1237717,   332.440491
   7329,   197.466217,   389.846375
   7330,   161.486298,   383.984283
   7331,   225.696823,   390.308899
   7332,   193.552277,    396.95459
   7333,   32.8210258,   362.293121
   7334,    117.05957,   347.506897
   7335,   71.5966797,   323.342407
   7336,   123.065033,   344.861572
   7337,   163.885773,   397.765778
   7338,   203.300446,   392.504822
   7339,   139.890167,   382.435394
   7340,   171.228058,   395.024658
   7341,   130.145889,   377.009369
   7342,   86.4073868,   340.427124
   7343,   102.556618,   342.352234
   7344,   148.755219,   379.441681
   7345,   122.673981,   379.021606
   7346,    107.05777,   350.698395
   7347,   85.6751404,   348.742279
   7348,   70.2292709,   330.524506
   7349,    131.95015,   385.007233
   7350,    182.04747,   398.186035
   7351,   148.617065,   390.109589
   7352,    40.147831,   361.483185
   7353,   93.7441635,   349.087585
   7354,   100.922989,   349.776031
   7355,   111.882767,   350.032776
   7356,   120.520889,   362.544403
   7357,   78.6847229,    331.72525
   7358,   210.384171,   399.382721
   7359,   113.265663,   356.399689
   7360,    210.60556,   413.569763
   7361,   100.678825,   357.034454
   7362,   114.664116,   371.793243
   7363,   85.3647232,   357.140747
   7364,   201.054001,   400.941162
   7365,   179.209839,   412.803955
   7366,   23.8904591,   374.946289
   7367,    68.579483,   347.618134
   7368,   133.640274,   393.056122
   7369,   77.4837875,   366.323975
   7370,   93.6978149,   364.558228
   7371,   101.500999,   371.240723
   7372,   85.7605972,   365.341248
   7373,   69.3439102,   338.560028
   7374,   114.915237,   380.568268
   7375,   218.278229,   405.968811
   7376,   114.101677,   363.696289
   7377,   60.7116852,   337.163757
   7378,    108.24826,   391.761475
   7379,   86.8580627,   373.300934
   7380,    69.195015,   367.624939
   7381,   116.194893,   389.563873
   7382,   101.195213,   377.176727
   7383,   107.900055,    371.99292
   7384,   225.907059,   406.300995
   7385,   50.8757477,   328.978363
   7386,   98.5015869,   385.568787
   7387,   82.1293716,   383.503174
   7388,   89.1333237,   380.613892
   7389,   99.4208908,   395.030243
   7390,   66.5098419,   358.269348
   7391,   135.443298,   400.647064
   7392,   218.051331,   413.173584
   7393,   118.025612,   398.440918
   7394,   112.406654,   409.759155
   7395,   130.571747,   410.964386
   7396,   85.3021774,    390.21109
   7397,    71.319603,   383.069366
   7398,   120.055756,   407.393372
   7399,   55.5278664,   318.154572
   7400,   58.9587212,   353.455933
   7401,   224.341766,   418.490082
   7402,   104.927376,   412.203247
   7403,   47.5565262,     320.7677
   7404,   113.660286,   417.915161
   7405,   53.0581589,   345.089569
   7406,   82.1193619,   400.331512
   7407,   88.3380051,   396.484009
   7408,   52.8588181,   352.153656
   7409,   218.759827,   420.240448
   7410,   71.1033401,      373.888
   7411,   141.694778,   399.368408
   7412,   57.8515129,   364.300507
   7413,   85.0502701,   406.789001
   7414,   54.2432404,   357.952057
   7415,   98.6840744,   422.258453
   7416,   39.2144203,    323.14389
   7417,   52.4083786,   337.087372
   7418,   102.775284,   403.839783
   7419,   77.6892166,   411.214111
   7420,   42.3708954,   330.489349
   7421,   97.9174347,   414.718781
   7422,   39.5677986,   345.729431
   7423,   70.5711899,   392.919952
   7424,   107.494629,   428.536774
   7425,   202.537109,   412.876221
   7426,   90.5352783,   422.921936
   7427,   65.9662018,   378.744751
   7428,   118.646118,   427.725372
   7429,   68.2747879,   405.468292
   7430,   81.2938004,   420.280334
   7431,   38.4013634,   353.269135
   7432,   55.6008034,   380.339264
   7433,   70.7144623,   422.272339
   7434,   122.037285,   439.899384
   7435,    129.39212,   421.789337
   7436,   133.048462,   415.954803
   7437,   69.3743896,   413.544189
   7438,   136.724457,   423.713562
   7439,   49.6450615,   367.584473
   7440,   144.280792,   424.657684
   7441,   47.4225121,   360.134613
   7442,   61.0209732,   423.336365
   7443,   150.741989,   425.802368
   7444,     148.2034,   408.186218
   7445,   147.042328,   416.850647
   7446,   34.1920013,   367.986298
   7447,   34.0271034,   376.576599
   7448,   44.9346085,   378.387665
   7449,   148.744507,   399.415741
   7450,   156.890152,   408.495148
   7451,   165.858383,   406.826691
   7452,   27.4198437,   380.793823
   7453,   37.9805756,   382.433533
   7454,   60.1800995,   385.513031
   7455,   155.634506,   390.317169
   7456,   25.3346157,   390.976562
   7457,   30.7903423,   396.164978
   7458,   52.8324585,   394.230896
   7459,   35.9456329,   391.936188
   7460,   35.1949959,   400.042328
   7461,   68.0787811,   398.414886
   7462,   22.7321815,   404.607574
   7463,   52.0143738,   405.386414
   7464,   42.7902985,   406.183746
   7465,    24.860117,   416.759644
   7466,    33.006218,   406.892151
   7467,   60.3705902,   405.673096
   7468,   24.5539188,    424.45575
   7469,   51.7805939,   414.890717
   7470,   42.6898117,   415.260712
   7471,   51.6182785,   423.855682
   7472,   33.2429771,   424.418732
   7473,   42.3369713,   424.167084
   7474,   247.772339,   97.8388519
   7475,   240.780045,   318.984314
   7476,   131.717697,   440.977997
   7477,   7.93888187,   301.261383
   7478,   119.929741,   100.357803
   7479,   15.8368874,   284.297607
   7480,   15.6097813,   361.936279
   7481,    238.17897,   113.997711
   7482,   113.580757,   424.945465
   7483,   24.1142349,   409.882721
   7484,   117.229195,    111.05262
   7485,   35.7421455,   253.215897
   7486,   25.5323372,   279.737671
   7487,   22.9589138,    294.51123
   7488,   24.0580521,   355.969727
   7489,   21.1135235,   369.571411
   7490,   225.217682,   413.295044
   7491,    226.10112,   398.575684
   7492,   210.744156,   421.804688
   7493,   227.694138,   177.040497
   7494,   230.279846,   117.159744
   7495,   132.359833,   101.837105
   7496,   37.6705437,    339.00061
   7497,   121.873001,   102.442459
   7498,   183.261429,   423.843811
   7499,    223.61969,   210.340988
   7500,   178.176941,   421.135254
   7501,   41.3469887,   388.835785
   7502,   34.8815117,   345.460175
   7503,   31.5236378,    289.80426
   7504,   50.2290268,   179.151398
   7505,   37.5312614,   178.323929
   7506,   37.6665764,    210.64856
   7507,   127.891739,   403.958435
   7508,   88.3853531,   412.718384
   7509,   217.866165,    391.18689
   7510,   216.648804,   383.262604
   7511,    66.409462,   164.738449
   7512,   117.434502,   136.157272
   7513,   56.7292976,   182.055283
   7514,   219.457565,   174.595673
   7515,   135.100327,   104.069603
   7516,   43.5836945,   185.837051
   7517,   45.8342438,   345.355743
   7518,   75.4271317,   403.694092
   7519,   217.838928,   258.817963
   7520,   221.779572,   180.883087
   7521,   40.6931152,   287.974121
   7522,   47.5608177,    280.63501
   7523,   35.4043045,   302.415131
   7524,   38.9206619,   306.904816
   7525,   43.6407089,   313.220673
   7526,   210.030106,   142.026047
   7527,   114.559509,   161.740845
   7528,    209.27739,   290.905792
   7529,   210.000519,   283.018677
   7530,   194.654984,   368.743774
   7531,   194.863098,   409.682404
   7532,   95.4224625,   407.847198
   7533,   126.189835,   137.449249
   7534,   137.474426,    105.59127
   7535,   63.6863174,   184.368576
   7536,   200.606537,   105.314507
   7537,   215.600082,   179.000351
   7538,   210.430206,   258.789337
   7539,   93.2279205,   392.857208
   7540,   203.524734,   236.063751
   7541,   51.7881737,   308.526703
   7542,   52.2091217,   374.592957
   7543,   123.344078,   152.001587
   7544,   121.034218,   163.724945
   7545,   198.845963,    302.18045
   7546,   185.896362,   159.856201
   7547,    60.229599,   230.427887
   7548,   206.192169,   180.893265
   7549,   219.260483,   107.734947
   7550,   133.904678,   139.775452
   7551,   209.994125,   108.036453
   7552,   112.360779,   175.269623
   7553,   70.0222778,    205.69577
   7554,   97.0808411,   191.616257
   7555,   75.7702255,    388.07547
   7556,   162.383789,   389.892792
   7557,   182.710739,   320.269714
   7558,   191.475494,   299.155945
   7559,   187.010422,   382.499451
   7560,   187.245911,   364.829376
   7561,   65.0180664,   322.350677
   7562,   95.8328629,   378.880035
   7563,   175.103973,   332.302765
   7564,   209.600098,    110.81852
   7565,   204.698059,   110.322777
   7566,   202.349899,   132.894516
   7567,   185.722488,   238.484512
   7568,   133.657654,   107.936867
   7569,   181.279892,     381.4328
   7570,    83.683403,   189.216293
   7571,   81.5715179,   194.097595
   7572,   70.2190857,   293.706848
   7573,   182.196167,   179.848694
   7574,   176.230972,   178.147873
   7575,   165.844727,   380.476318
   7576,   86.6459961,   222.453888
   7577,   171.895462,   348.003418
   7578,    128.36142,   368.963104
   7579,   140.921539,   141.397064
   7580,   77.0514374,   348.426025
   7581,   190.043365,   195.457794
   7582,    197.95842,   130.553711
   7583,    192.36998,   110.216476
   7584,   206.484192,   113.122002
   7585,   196.742203,   113.103073
   7586,   194.563705,   130.302246
   7587,   191.461777,   222.436081
   7588,   180.161774,   184.186035
   7589,   181.382706,   131.547729
   7590,   175.399094,   316.192108
   7591,   177.671539,   110.661751
   7592,    152.24588,   109.755615
   7593,   160.728928,   110.352585
   7594,   79.2619858,   316.383148
   7595,   89.9066925,   264.350067
   7596,   94.1580429,   270.997498
   7597,   100.974411,   364.242737
   7598,   140.270905,   162.243057
   7599,   87.7016525,   212.283279
   7600,   177.070053,   201.881943
   7601,    126.75325,   360.932678
   7602,   132.808624,   359.164673
   7603,    143.43866,   356.418701
   7604,   132.586105,   198.885864
   7605,   196.042282,   115.617409
   7606,   91.7959747,   255.290726
   7607,   186.537598,    218.57074
   7608,   178.689865,   190.417191
   7609,   101.823769,   267.877167
   7610,   184.853592,   112.724937
   7611,   174.958954,   113.437088
   7612,   165.998947,   311.506378
   7613,   170.118805,   203.604996
   7614,   160.106689,   188.923767
   7615,   154.857147,   187.310989
   7616,    125.17067,   352.982361
   7617,   137.913177,   350.443085
   7618,   95.6106873,   212.749619
   7619,   150.705063,   146.188492
   7620,   138.164963,    203.74144
   7621,   113.778023,   220.374619
   7622,   110.397842,   226.929993
   7623,   168.088104,   304.062317
   7624,   146.840607,    319.82428
   7625,    172.38121,   218.163101
   7626,   150.771576,   111.892677
   7627,   157.488861,   306.484528
   7628,   195.555679,   126.657761
   7629,   195.377655,   117.706024
   7630,   190.685226,   118.196526
   7631,   154.409668,   111.459564
   7632,   104.360596,   283.676147
   7633,   179.984497,    116.30085
   7634,   161.726868,   116.639244
   7635,   163.829041,   196.713089
   7636,   133.093979,   316.144379
   7637,   152.099915,   116.000717
   7638,   155.406952,   119.714607
   7639,    157.95784,   121.532249
   7640,   164.787262,   141.517792
   7641,   163.672241,    134.75943
   7642,   162.738129,   130.637131
   7643,   161.401138,   237.879364
   7644,   109.157341,   243.835159
   7645,   140.375458,   311.032684
   7646,   163.737045,   267.687622
   7647,   160.353027,   123.002007
   7648,   159.392761,   135.242706
   7649,     186.6922,   117.331642
   7650,    152.98967,   308.092499
   7651,   171.923248,   118.472237
   7652,    139.46843,   303.771454
   7653,   164.396011,   122.199997
   7654,   155.253067,   116.013214
   7655,   155.482452,   203.212204
   7656,   140.889755,   225.870102
   7657,   158.896317,   259.358246
   7658,   111.229668,   293.060638
   7659,   106.965538,   305.129883
   7660,   117.271324,    271.00708
   7661,    127.25489,   312.210205
   7662,   155.918442,   293.397095
   7663,   155.059509,   112.954865
   7664,   145.091812,   230.196365
   7665,   116.411232,   252.506027
   7666,   138.513367,   296.149109
   7667,   141.276978,   234.913315
   7668,   119.932777,   288.383636
   7669,   148.329605,   234.205627
   7670,   127.289032,   281.799835
   7671,   134.834732,   285.697083
   7672,   140.220123,   242.549377
*Element, type=CPE3
 1, 1840,  677, 1839
 2, 1775, 1765,  620
 3, 1788, 1818, 1808
 4, 1555, 1546, 1552
 5, 1657, 1403, 1641
 6, 1051, 1018, 1014
 7, 1104, 1928,  480
 8, 1967, 1984,  481
 9, 1735,  606, 1714
10, 1752, 1713,  638
11, 1859,  662, 1857
12, 1834, 1825, 1829
13, 1856, 1851,  691
14, 1861, 1878, 1872
15, 1045,  475, 1023
16, 1067, 1079, 2053
17, 1133, 1088, 1113
18, 1984, 1132, 1131
19,  535, 1348, 1397
20, 1452, 1418, 1417
21, 1476,  547, 1454
22, 1539, 1513, 1531
23, 1545,  575, 1524
24, 1523,  544, 1491
25, 2046, 1536, 1549
26, 1631, 1614, 1587
27, 1675, 1603, 1629
28, 1923, 1634,  555
29, 1649,  598, 1642
30, 1722, 1700, 1690
31, 1701,  593, 1668
32,  705,  720, 1804
33, 1828,  634, 1823
34, 1842,  734, 1826
35, 1847,  692, 1840
36, 1881,  716, 1866
37, 1895, 1962, 1939
38,  935, 1907,  812
39, 1926, 1359,  539
40, 1943,  645, 1522
41, 1885, 1955, 1953
42, 1957, 1647, 1666
43,  969,  898,  919
44, 1972, 1950,  723
45, 1988, 1208, 1219
46,  530, 1503, 1525
47, 1185, 1180, 1172
48, 2032,  547, 1459
49, 2059, 1619, 1598
1693, 3770, 3822, 3711
1694, 3771, 3821, 3712
1695, 3648, 5440, 3506
1696, 5909, 5085, 5114
1697, 5113, 5082, 2438
1698, 5043, 4994, 2473
1699, 5239, 3934, 2673
1700, 5405, 3304, 3483
1701, 5383, 3437, 2149
1702, 4352, 4296, 2177
1703, 4545, 4509, 2184
1704, 4887, 4856, 2239
1705, 4904, 2489, 4870
1706, 4511, 4108, 2452
1707, 5153, 5028, 5074
1708, 5054, 2476, 5020
1709, 4387, 4276, 2543
1710, 5569, 5570, 4146
1711, 2622, 5627, 3998
1712, 2633, 4315, 4205
1713, 3073, 2865, 2866
1714, 3172, 5283, 5307
1715, 5462, 3392, 3282
1716, 5426, 3407, 5492
1717, 3415, 2325, 3314
1718, 3425, 3422, 3368
1719, 3743, 3508, 2148
1720, 5379, 2123, 3401
1721, 3667, 3524, 3591
1722, 5447, 3362, 3514
1723, 3667, 2697, 3568
1724, 5455, 3631, 3961
1725, 5459, 3688, 2115
1726, 5458, 3694, 2699
1727, 3721, 5506, 3545
1728, 5563, 2665, 3876
1729, 3923, 3780, 2284
1730, 3874, 2523, 3710
1731, 3806, 2291, 3696
1732, 3971, 3909, 3955
1733, 5585, 2168, 2147
1734, 5473, 3937, 2463
1735, 2397, 3734, 3843
1736, 3973, 2236, 3895
1737, 5527, 2347, 4101
1738, 4023, 3979, 3850
1739, 4142, 2363, 3994
1740, 4083, 2310, 3897
1741, 5531, 4096, 3937
1742, 5403, 2340, 3837
1743, 5708, 4133, 4320
1744, 4416, 4364, 2612
1745, 4146, 2621, 4062
1746, 4350, 4173, 4272
1747, 5603, 4178, 4104
1748, 5623, 4231, 2157
1749, 5678, 4302, 4256
1750, 4383, 4331, 2643
1751, 4468, 2197, 4063
1752, 4536, 5650, 4495
1753, 4532, 4135, 2197
1754, 5773, 5723, 5733
1755, 2554, 5228, 4543
1756, 4711, 4593, 2471
1757, 4619, 4425, 2256
1758, 5804, 4840, 4641
1759, 2218, 4269, 4201
1760, 4842, 5837, 4729
1761, 5749, 4736, 4671
1762, 5806, 4748, 5847
1763, 4756, 2489, 4713
1764, 5703, 5730, 4855
1765, 5882, 5852, 2242
1766, 5638, 4906, 2264
1767, 5823, 4983, 4955
1768, 5245, 5204, 2384
1769, 2279, 5185, 5008
1770, 5902, 5903, 5173
1771, 4958, 5101, 5791
1772, 5179, 5171, 2421
1773, 5899, 5916, 5160
1774, 5889, 5904, 5175
1775, 5171, 5150, 2402
1776, 5795, 5215, 5106
1777, 5198, 5853, 5872
1778, 4761, 2543, 4794
1779, 3086, 5275, 3136
1780, 5393, 3397, 2127
1781, 5396, 2616, 3061
1782, 5429, 3256, 2716
1783, 3407, 5357, 5430
1784, 2110, 3478, 3614
1785, 3773, 5500, 3684
1786, 3896, 4043, 5518
1787, 5592, 4237, 4353
1788, 2433, 2432, 5240
1789, 5633, 4483, 2582
1790, 3997, 5694, 2444
1791, 5693, 4352, 4336
1792, 4554, 4534, 4424
1793, 5758, 2552, 5024
1794, 5760, 4519, 4462
1795, 5771, 4523, 4569
1796, 5742, 4930, 5743
1797, 5813, 4860, 4891
1798, 5835, 5032, 5791
1799, 5099, 5838, 2491
1800, 5843, 2513, 5826
1801, 2610, 5832, 5848
1802, 5854, 5851, 4982
1803, 5048, 4877, 4936
1804, 5871, 4821, 2586
1805, 5062, 5884, 2333
1806, 5888, 2422, 5204
1807, 5896, 5161, 5183
1808, 5897, 5061, 5015
1809, 5913, 2530, 5119
5740, 7034, 6981, 7599
5741, 7273, 7254, 7271
5742, 7068, 7031, 7587
5743, 7608, 6887, 5990
5744, 7615, 6752, 6748
5745, 7084, 7105, 6035
5746, 7550, 6649, 6658
5747, 6459, 5926, 6427
5748, 6613, 7653, 6607
5749, 6653, 6665, 5941
5750, 6696, 6673, 6684
5751, 6716, 6701, 5948
5752, 6755, 5990, 6749
5753, 6767, 5948, 6719
5754, 7520, 7493, 6954
5755, 7021, 6964, 6956
5756, 7604, 6964, 6927
5757, 7025, 6990, 7020
5758, 7667, 7047, 6019
5759, 7084, 7067, 6034
5760, 7644, 7121, 7114
5761, 7131, 7138, 5997
5762, 7660, 7181, 7166
5763, 7150, 7098, 7075
5764, 7522, 7274, 7165
5765, 7167, 6088, 7151
5766, 7193, 6062, 7670
5767, 7248, 6053, 7235
5768, 7297, 7272, 6106
5769, 6118, 7355, 7346
5770, 7461, 7423, 6175
5771, 7400, 7414, 7408
5772, 7411, 6171, 7391
5773,  371, 7474,  370
5774, 7497, 7478, 6343
5775, 7501, 6177, 7459
5776, 7537, 7514, 7520
5777, 7542, 6146, 7432
5778, 7569, 7559, 7306
5779, 6643, 7582, 6604
5780, 6526, 6497, 6537
5781, 7663, 7631, 6510
5782, 7648, 6639, 6657
5783, 7649, 6547, 6584
5784, 6600, 6593, 6641
5785, 6684, 6690, 6678
5786, 6061, 7671, 7186
*Element, type=CPE4
  50, 1896,   12,   13,  771
  51, 1010, 1035,  163,  164
  52,  161, 1141, 1246,  160
  53,  160, 1246, 1247,  159
  54,  158, 1272, 1248,  157
  55, 1263,  156,  157, 1248
  56, 1244,  154,  155, 1271
  57, 1901, 1262,  566, 1270
  58, 1249,  151,  152, 1270
  59, 1261,  150,  151, 1249
  60, 1245,  148,  149, 1269
  61, 1268, 1260, 1334,  617
  62, 1383, 1258, 1259, 1360
  63,  144, 1258, 1257,  143
  64,  659, 1256, 1900, 1267
  65,  141, 1256, 1255,  140
  66, 1266, 1347,  686, 1254
  67,  138, 1254, 1243,  137
  68, 1252, 1253, 1336,  711
  69,  726, 1251, 1265, 1363
  70, 1385, 1242, 1251,  726
  71, 1250, 1264,  751, 1328
  72,  129, 1250, 1328,  128
  73,  130, 1250,  129,    5
  74, 1321, 1322, 1378, 1340
  75, 1378, 1322,  488, 1527
  76,  503, 1389, 1415, 1936
  77, 1978, 1469, 1425, 1994
  78, 1433, 1440, 1423,  532
  79,  548, 2022, 1459, 2033
  80, 1494,  562, 1486, 1545
  81, 1518, 1506,  577, 1561
  82, 1471, 1479, 1475,  603
  83, 1436, 1424,  604,  603
  84,  617, 1405, 1426, 1360
  85, 1334, 1392, 1405,  617
  86, 1368, 1422, 1392, 1334
  87, 1437, 1443, 1428,  579
  88, 1480, 1456,  563, 1516
  89, 1482, 1451, 1465,  562
  90, 1452, 1448,  548, 1467
  91, 2007, 1408, 1996, 1332
  92, 1350, 1329, 1326,  505
  93, 1168, 1234,  504, 1233
  94, 1377,  479, 1039, 1902
  95,  980,  938,  803,  850
  96, 1377, 1321, 1235,  479
  97, 1065, 1105, 1921, 1124
  98, 1153,  491, 1169, 1140
  99, 1969, 1193, 1183, 1354
 100, 1226, 1236,  521, 1223
 101,  536, 1346, 1390, 1406
 102,  551, 1429, 1435, 1470
 103, 1437,  579, 1449, 1499
 104, 1249, 1373, 1342, 1261
 105, 1401, 1421, 1373,  566
 106, 1401, 1352, 1420,  565
 107,  538, 1410, 1413, 1445
 108, 1231, 1228,  536, 1366
 109, 1335, 1213, 1217, 2003
 110, 1222, 1210, 1215, 1221
 111, 1166, 1172, 1152, 1155
 112, 1028, 1036, 1057, 1075
 113,  803, 1903,  849,   64
 114,   65,  850,  803,   64
 115,  980,  850, 1012, 1038
 116,  781,  775,  828,  804
 117,   58,  754,  775,   57
 118,   52,  756,  776,   51
 119,  787,   45,   46,  786
 120,   39,  760,  777,   38
 121,  763,   32,   33,  762
 122,  766,   25,   26,  796
 123,   18,  779,  769,   17
 124,  164,  802,  937, 1010
 125,  791,  777,  832,  824
 126,  752,  787,  805,  848
 127,  784,  776,  830,  806
 128, 1320,  488,   70,   71
 129, 1320, 1323,  500, 1544
 130, 1544,  500, 1554,  501
 131,  529, 1574, 1573, 1560
 132, 1566,  543, 1560, 1573
 133, 1579, 1596, 1586,  557
 134, 1607, 1591,  557, 1586
 135, 1597,  570, 1623,  571
 136, 1681, 1653,  581, 1654
 137, 1706, 1687,  594, 1736
 138,  607, 1747, 1724, 1706
 139,  636, 1759, 2027, 1776
 140,  650, 1794, 1990, 1796
 141, 1807, 1846, 1971, 1841
 142,  675,  676, 1835, 1977
 143, 1845,  690, 1856,  691
 144, 1851, 1856,  701, 1853
 145, 1954, 1866,  715, 1885
 146, 1880,  731, 1878, 1881
 147, 1274, 1370, 1331, 1314
 148,  112, 1314, 1273,  111
 149, 1273, 1314, 1331,  744
 150, 1274,  113,  114, 1296
 151, 1873, 1876, 1877, 1869
 152, 1866,  716,  701,  700
 153, 1840,  691, 1851, 1847
 154, 1824,  664, 1829, 1825
 155,  651, 1802, 1805, 1816
 156, 1779, 1767,  637, 1773
 157, 1759, 1745,  622, 2027
 158, 1707, 1727, 1728, 1740
 159, 1692, 1695, 1669,  595
 160, 2018, 2017, 1658, 1685
 161,  572, 1616, 1620, 2039
 162, 1576,  557, 1591, 1616
 163, 1579, 1547, 1558, 1982
 164, 1532,  529, 1560, 1537
 165, 1525,  516, 1535,  530
 166, 1578, 1474,  501, 1554
 167, 1492, 1490, 1378, 1527
 168,   77, 1275,   76,    3
 169,   75,   76, 1275, 1327
 170,  512, 1382, 1908,  513
 171, 1643,  527,  526, 1927
 172,  542, 1611, 1948, 1609
 173, 1611, 1588, 1624,  541
 174,  542, 1566, 1588, 1611
 175,  515, 1606, 1610, 1594
 176,  498,  513,  514,  499
 177,  512,  513,  498, 1327
 178,   73,   74,  498,  499
 179,   78, 1304, 1275,   77
 180, 1382, 1276, 1277, 1359
 181, 1359,  526, 1908, 1382
 182, 1634, 1632,  541, 1643
 183, 1644, 1628, 1650,  569
 184, 1632, 1948, 1611,  541
 185, 1276,   79,   80, 1277
 186,  539, 1388,  540, 1926
 187, 1664, 1924, 1923, 1886
 188, 1644,  569, 1666, 1647
 189, 1627, 1650, 1628,  556
 190,   81, 1305, 1277,   80
 191,  554, 1388, 1278, 1279
 192, 1364, 1886,  554, 1279
 193,  569,  568, 1679, 1666
 194, 1654, 1668, 1703, 1681
 195,  580, 1957, 1666, 1679
 196, 1278,   82,   83, 1279
 197, 1337, 1875, 1879,  567
 198, 1871, 1701,  580, 1679
 199, 1681, 1703,  594, 1678
 200, 1668, 1654,  580, 1701
 201, 1306, 1280, 1337,  567
 202, 1870, 1874, 1372,  591
 203, 1735, 1714,  593,  592
 204, 1736, 1757,  607, 1706
 205, 1714,  606, 1757, 1736
 206, 1280,   85,   86, 1281
 207, 1281,   86,   87, 1307
 208, 1345, 1864, 1870,  591
 209,  606, 1780, 1765, 1757
 210, 1775, 1793,  621, 1992
 211, 1337, 1280, 1281, 1372
 212, 1307, 1282, 1345,  591
 213, 1823,  620, 1827, 1828
 214, 1810,  635, 1811, 1848
 215, 1793, 1823, 1963, 1974
 216,   89, 1283, 1282,   88
 217, 1283,   89,   90, 1308
 218, 1351, 1843,  619, 1850
 219,  633,  634, 1828, 1843
 220, 1848, 1846,  649, 1810
 221, 1345, 1282, 1283, 1375
 222,  618, 1308, 1897, 1284
 223, 1379, 1852, 1844,  632
 224, 1859, 1857, 1944, 1863
 225, 1849, 1855,  663, 1971
 226, 1857, 1846, 1848, 1944
 227, 1284, 1897, 1285,  632
 228, 1285,   92,   93, 1309
 229, 1860,  660, 1386,  672
 230,  662, 1859,  661, 1865
 231,  675,  674,  690, 1845
 232, 1977, 1961,  674,  675
 233, 1379, 1309, 1286, 1356
 234,  672,  673,  661, 1860
 235, 1922, 1865,  661,  673
 236, 1962,  690,  689, 1939
 237,  689,  690,  674, 1940
 238,   95, 1287, 1286,   94
 239,   96, 1310, 1287,   95
 240, 1362,  673,  672, 1288
 241, 1895, 1939,  688, 1918
 242,  700,  699,  715, 1866
 243, 1962,  699,  700,  690
 244, 1310, 1386,  660, 1287
 245, 1288,  672, 1386, 1310
 246,  687, 1333, 1918,  688
 247,  714, 1956,  715,  699
 248,   98, 1289, 1288,   97
 249,   99, 1311, 1289,   98
 250, 1333, 1369,  698, 1918
 251, 1934,  714,  698,  713
 252,  730, 1932, 1361,  744
 253, 1953, 1932,  730, 1885
 254, 1289, 1311, 1333,  687
 255, 1290,  100,  101, 1291
 256,  712, 1339, 1917,  713
 257,  728, 1384,  743,  729
 258, 1292,  110,  111, 1273
 259, 1883,  730,  744, 1331
 260, 1333, 1311, 1290, 1369
 261,  102, 1312, 1291,  101
 262,  727,  742, 1384,  728
 263, 1384, 1294, 1313,  743
 264, 1291, 1312, 1339,  712
 265, 1293,  103,  104,  741
 266, 1295,  107,  108, 1294
 267,  109, 1313, 1294,  108
 268, 1312, 1293,  727, 1339
 269,  741,  104,  105, 1898
 270, 1898,  106,  107, 1295
 271, 1296,  114,  115, 1315
 272, 1315, 1341,  745, 1296
 273, 1341,  746, 1887, 1882
 274,  703, 1830, 1817, 1966
 275,  692, 1837,  693, 1821
 276, 1840,  692, 1821,  677
 277,  652, 1778, 1790, 1800
 278, 1739,  638, 1725, 1751
 279, 1709,  624, 1729, 2025
 280, 1740, 1696,  609, 1707
 281,  609, 1716, 1695, 1692
 282, 1626,  584, 1600,  583
 283,  572, 2039, 1590, 2015
 284, 2015, 1590, 1571,  558
 285, 1543, 1521,  544, 1558
 286, 1503, 1491,  531, 1462
 287,  517, 1444, 1462, 1520
 288, 1415, 1461, 1444,  517
 289, 1297,  116,  117, 1890
 290, 1315, 1297,  746, 1341
 291,  732, 1888, 1884,  718
 292, 1915,  732,  718, 1868
 293, 1798,  694, 1975, 1803
 294, 1976,  678, 1821,  693
 295, 1783,  666, 1788, 2002
 296, 1753,  653, 1763,  666
 297, 1752,  638, 1739,  652
 298, 1697, 1684,  625, 1671
 299,  610, 1674, 1651, 1638
 300,  598, 1659, 1635, 2059
 301, 2055, 1621, 1649, 1642
 302, 1580,  573, 1585, 1599
 303, 1581, 1562, 1571,  573
 304,  545, 1509, 1508, 1484
 305,  531, 1484, 1460, 1432
 306, 1425, 1432, 1460,  532
 307, 1890,  117,  118, 1899
 308,  119, 1298, 1899,  118
 309, 1842,  733, 1891, 1892
 310, 1942, 1826,  734, 1819
 311, 1809,  704, 1822, 1833
 312,  694, 1798, 1795, 1770
 313,  679, 1770, 1766, 2014
 314, 1726,  667, 1749,  680
 315, 1715, 1720, 1753, 1738
 316, 1667, 2037,  640, 1648
 317, 1667, 1660, 1684,  639
 318,  611, 1638, 1618, 1608
 319, 2059, 1635, 2058, 1619
 320, 1613, 1595, 2056, 1619
 321, 2046, 1570, 1552, 1546
 322, 1496, 1513, 1549, 1536
 323, 1481,  547, 1476, 2034
 324, 1298,  119,  120, 1317
 325, 1299, 1357, 1381, 1317
 326,  720, 1942, 1815, 1804
 327, 1804, 1797, 1787,  705
 328, 1985, 1787, 1797, 1789
 329, 1744, 1762, 1986, 1764
 330, 1705, 1726, 1730,  668
 331,  654, 1699, 1676, 2038
 332, 1677, 2038, 1676, 1661
 333, 1630, 1615,  627, 1604
 334, 1583,  612, 1608, 1604
 335, 1582,  600, 2042, 1601
 336, 1564, 1563, 1584, 1605
 337, 1519,  561, 1507, 1536
 338, 2032, 1459, 2022, 1431
 339,  122, 1300, 1299,  121
 340, 1357,  749, 1894,  735
 341,  721, 1831,  722, 1792
 342, 1792,  706, 1806,  721
 343,  681, 1764, 1755, 1742
 344, 1732,  668, 1730,  681
 345,  668, 1732, 1690, 2030
 346,  642, 1639, 1663, 1640
 347, 1587,  627, 1615, 1631
 348,  613, 1575, 1551, 1540
 349, 1569, 1553,  601, 1550
 350, 1511, 1556, 2028, 1550
 351, 1524, 1529, 1542,  576
 352,  561, 1545, 1486, 1485
 353, 1300,  122,  123, 1318
 354, 1318, 1387,  749, 1300
 355, 1931, 1894,  749, 1387
 356, 1964,  722, 1831,  736
 357, 1746, 1983,  708, 1741
 358, 1760, 1746, 1998, 2011
 359, 1731,  682, 2011, 1998
 360, 1710, 1694,  669, 1742
 361, 1633, 1637,  643, 1577
 362, 1614, 1557,  628, 1587
 363, 1540,  614, 1533,  613
 364, 1538, 1553, 1533, 1526
 365, 1511, 1514,  589, 1510
 366,  589, 1506, 1518, 1510
 367, 1301,  124,  125, 1302
 368, 1387, 1318, 1301, 1365
 369, 1365,  750, 1930,  737
 370, 1785,  723,  737, 1930
 371,  709, 1708, 1734, 1949
 372, 1708, 1717, 1741,  708
 373,  697, 1737, 1717, 1704
 374, 1754, 1733, 1782,  671
 375, 1719, 1702, 1758,  657
 376, 1723, 1683,  643, 1662
 377, 1577, 1517,  629, 1557
 378, 1497, 1515, 1495, 1489
 379, 1455,  603, 1475, 1472
 380, 1302,  125,  126, 1319
 381, 1319, 1338,  750, 1302
 382, 1534, 1528,  739,  738
 383,  738,  739,  724, 1946
 384, 1438, 1938,  710, 1464
 385, 1657, 1675, 1464,  710
 386,  671, 1756, 1758, 1754
 387,  645, 1943, 1505, 1478
 388, 1434,  631, 1463, 1522
 389, 1439, 1426,  616, 1951
 390, 1424, 1436, 1446,  616
 391, 1303,  127,  128, 1328
 392, 1338, 1319, 1303, 1409
 393, 1409, 1493, 1528, 1338
 394, 1914, 1458,  740, 1385
 395, 1427, 1363,  711, 1403
 396, 1371,  686,  685, 1603
 397, 1512, 1501,  658, 1541
 398, 1478, 1353, 1468,  645
 399,  631, 1434, 1383, 1360
 400,  631, 1360, 1426, 1439
 401, 1250,  130,  131, 1264
 402, 1242,  132,  133, 1251
 403, 1251,  133,  134, 1265
 404, 1252,  135,  136, 1253
 405, 1253,  136,  137, 1243
 406, 1254,  138,  139, 1266
 407, 1256,  141,  142, 1900
 408, 1258,  144,  145, 1259
 409,  146, 1268, 1259,  145
 410, 1260,  147,  148, 1245
 411, 1334, 1260, 1245, 1368
 412, 1262, 1901, 1244,  553
 413, 1248, 1272, 1330,  525
 414, 1246,  497, 1240, 1247
 415, 1141, 1122,  487, 1324
 416, 1103, 1006, 1032, 1084
 417, 1028,  978, 1007, 1036
 418,  983,  991, 1030,  984
 419, 1048, 1022, 1044, 1068
 420, 1015, 2036, 1041, 2052
 421, 1053, 1013, 1050, 2026
 422, 1049, 1037,  981, 1034
 423, 1008,  956, 1031,  478
 424,  991, 1024, 1056, 1030
 425, 1019, 2024, 1044, 1022
 426,  993, 1016, 1020, 1000
 427, 1002, 1001, 1018, 1040
 428, 1055, 1009, 1005, 1025
 429,  810,  825,  762,  793
 430,  820,  826,  766,  796
 431,  808,  827,  767,  798
 432, 1105, 1065,  479, 1235
 433, 1234, 1168,  490, 1239
 434, 1233, 1189, 1153, 1168
 435, 1350, 1404, 1960, 1329
 436, 1227, 1230, 1325,  520
 437,  535, 1397, 1417, 1418
 438,  550, 1419, 1451, 1442
 439, 1477,  564, 1456, 1480
 440,  590, 1402, 1422, 1368
 441, 1342, 1394, 1402,  590
 442, 1104, 1140, 1169, 1135
 443, 1142, 1157, 1160, 1130
 444, 1158, 1178, 1143, 1144
 445, 1174, 1156, 1179, 1186
 446, 1148, 1993, 1154,  485
 447, 1149, 1136, 1108,  486
 448, 1136, 1149, 1925, 1165
 449, 2029, 1142, 1127, 1128
 450, 1145, 1134, 1126, 1129
 451, 1120, 1133, 1147, 1138
 452, 1150, 1167,  486, 1139
 453, 1367, 1912,  503, 1374
 454, 1912, 1367,  489, 1340
 455, 1176,  491, 1183, 1188
 456, 1185, 1176, 1188, 1987
 457, 1210, 1222, 1216,  507
 458, 1195, 1202, 1198, 1190
 459,  494, 1190, 1186, 1179
 460, 1182, 1958, 1187, 1203
 461,  496, 1203, 1206, 1212
 462, 1212, 1206, 1218, 1240
 463,  494, 1199, 1195, 1190
 464, 1190, 1198, 1194, 1186
 465, 1203, 1187, 1200, 1206
 466, 1323,  499, 1606,  500
 467, 1625, 1602, 1610,  514
 468, 1474, 1578, 1535,  516
 469, 1374,  503, 1936, 1391
 470,  504, 1374, 1391, 1404
 471, 1229, 1220, 1224,  523
 472,  523, 1241, 1204, 1229
 473, 1237, 1393, 1330,  511
 474, 1237,  511, 1218,  510
 475, 1204,  509, 1208, 1229
 476, 1200, 1197, 1238,  510
 477,  526,  527, 1625, 1908
 478, 1908, 1625,  514,  513
 479,  530, 1535, 1532, 1523
 480, 1535, 1559,  529, 1532
 481, 1332, 1995,  533, 2007
 482, 1995, 1398, 2006,  533
 483, 1228, 1232, 1346,  536
 484, 1228,  522, 2019, 1232
 485, 1224,  522, 1228, 1231
 486, 1344, 1241,  523, 1399
 487, 1400, 1416, 1407,  538
 488, 1393, 1416,  525, 1330
 489,  524, 1241, 1344, 1407
 490, 1523, 1532, 1537,  544
 491,  516, 1525, 1444, 1461
 492, 1397, 1348, 1236, 2010
 493, 2007,  533, 1412, 2021
 494, 2021, 1431, 1408, 2007
 495, 1396, 1981, 1429,  551
 496, 1366,  536, 1406, 1981
 497, 1413, 1410,  537, 1396
 498, 1400, 1411, 1380, 1358
 499, 1359, 1926, 1927,  526
 500,  540, 1643, 1927, 1926
 501, 1543, 1558, 1547,  558
 502, 1547, 1579,  557, 1576
 503,  545, 1484,  531, 1491
 504, 1418,  549, 1419, 1390
 505, 1467, 2043, 1465,  549
 506, 2043, 1486,  562, 1465
 507, 1466, 1447, 1470,  564
 508,  553, 1395, 1352, 1262
 509, 1388,  554,  555,  540
 510, 1591, 1607, 1597,  571
 511, 1521, 1543, 1562,  559
 512, 1531, 1502, 1509,  559
 513, 1433, 1476, 1454, 1440
 514, 1429,  550, 1442, 1435
 515, 1498, 1482,  562, 1494
 516,  563, 1482, 1498, 1516
 517, 1364,  567, 1879,  568
 518, 1664,  568,  569, 1650
 519,  571, 1622, 1616, 1591
 520,  558, 1571, 1562, 1543
 521,  574, 1539, 1548, 1580
 522, 1513, 1496, 2050,  560
 523, 1459, 2047, 1507, 2033
 524, 1473, 1504, 1457,  578
 525, 2017, 1655, 1669, 1658
 526, 1687, 1680, 1678,  594
 527, 1585, 1590, 2039, 1600
 528, 1580, 1599, 1593,  574
 529,  574, 1570, 2046, 1549
 530, 1536, 2046, 1546, 1519
 531, 1529, 1524,  575, 1555
 532, 1428, 1441, 1422, 1402
 533, 1599,  584, 1621, 2055
 534, 2056,  585, 1598, 1619
 535, 1511, 1550,  601, 1514
 536,  589, 1514, 1500, 1989
 537, 1727, 1707,  608, 1750
 538,  621, 1761, 1747, 1992
 539, 2031, 1716,  609, 1696
 540, 1656, 1617, 2058, 1635
 541, 1612, 1582, 1601, 1617
 542, 1569, 1572, 2016, 1553
 543, 1483, 1455, 1472, 1526
 544, 1375,  618, 1850, 1854
 545, 1765, 1780, 1827,  620
 546, 1773, 1743, 1759,  636
 547, 1776, 1774, 1786,  636
 548, 2040, 1729,  624, 1686
 549, 1651, 1671,  625, 1636
 550,  626, 1618, 1636, 1660
 551, 1583, 1604,  627, 1565
 552, 1551, 1565,  628, 1530
 553, 1515, 1530,  629, 1495
 554,  632, 1844, 1351, 1284
 555, 1767, 1779, 1802,  651
 556, 1725,  638, 2045, 1709
 557, 2045, 1688, 1684, 1697
 558, 1660, 1667, 1648,  626
 559, 1630, 1665,  641, 1615
 560, 1557, 1614, 1633, 1577
 561, 1683, 1517, 1577,  643
 562, 1383, 1434, 1468,  646
 563,  647, 1852, 1379, 1356
 564,  648, 1867, 1863, 1944
 565, 1802,  650, 1814, 1805
 566, 1807, 1841,  664, 1814
 567, 1751, 1778,  652, 1739
 568,  639, 1721, 2037, 1667
 569, 1639,  642,  641, 1661
 570, 1633,  642, 1640, 1637
 571, 1673, 2001, 1652, 1672
 572,  658, 1478, 1505, 1756
 573, 1501, 1353, 1478,  658
 574, 1356,  660, 1860,  647
 575, 1829, 1835,  676, 1834
 576, 1790, 1778,  651, 1816
 577, 1699,  654, 1689, 1705
 578, 1690, 1670,  655, 2030
 579, 1672, 1652,  656, 1700
 580, 1702,  670, 1754, 1758
 581, 1589, 1541,  671, 1782
 582, 1922,  673, 1362, 1919
 583, 1834,  676, 1839,  677
 584, 1839, 1845,  691, 1840
 585, 1808, 1812,  678, 1799
 586,  679, 2002, 1799, 1791
 587,  666, 1783, 1738, 1753
 588,  667, 1726, 1705, 1689
 589,  682, 1731, 1710, 1742
 590,  683, 1769, 1733, 1712
 591, 1589, 1768,  685, 1568
 592, 1362,  687,  688, 1919
 593, 1847, 1851, 1853,  702
 594,  678, 1976, 1791, 1799
 595, 1777,  695, 1772, 1762
 596, 1762, 1744,  680, 1777
 597, 1784, 1755,  696, 1771
 598, 1717, 1737, 1748, 1741
 599, 1675, 1629,  697, 1704
 600, 1371, 1603, 1641, 1336
 601, 1853,  701,  716, 1861
 602, 1830, 1837,  702, 1862
 603,  704, 1798, 1803, 1813
 604, 1798,  704, 1801, 1795
 605, 1771,  707, 1760, 1784
 606, 1746, 1741, 1748, 1998
 607, 1717, 1708,  709, 1704
 608, 1438, 1464,  709, 1949
 609, 1336, 1641, 1403,  711
 610, 1369,  712,  713,  698
 611, 1881, 1878, 1861,  716
 612, 1817, 1830, 1868,  718
 613, 1832, 1817,  718, 1884
 614, 1804, 1815, 1806, 1797
 615,  707, 1983, 1746, 1760
 616, 1708,  708, 1781, 1734
 617, 1938, 1438, 1949,  725
 618, 1363, 1427, 1450,  726
 619,  727,  728, 1917, 1339
 620, 1953, 1933,  729, 1932
 621, 1370,  745, 1877, 1876
 622,  731, 1883, 1876, 1873
 623,  717, 1869, 1915, 1868
 624,  733, 1884, 1888, 1891
 625, 1838, 1819,  734, 1893
 626, 1950, 1972, 1964,  736
 627,  740, 1458, 1493, 1355
 628,  741,  742,  727, 1293
 629, 1294, 1384,  742, 1295
 630, 1889, 1887,  746, 1297
 631, 1381,  748, 1298, 1317
 632, 1355, 1493, 1409,  751
 633,    2,   64,  849,   63
 634,   62,  772,  773,   61
 635,  772,  849, 1903,  894
 636,   61,  773,  774,   60
 637,  754,   58,   59,  780
 638,  775,  754,  814,  828
 639,  755,   55,   56,  781
 640,   55,  755,  782,   54
 641,  845,  829,  782,  755
 642,  756,   52,   53,  783
 643,  776,  756,  815,  830
 644,  757,   49,   50,  784
 645,   49,  757,  785,   48
 646,   48,  785,  758,   47
 647,  807,  847,  786,  758
 648,   47,  758,  786,   46
 649,   44,  752,  788,   43
 650,   43,  788,  759,   42
 651,   42,  759,  789,   41
 652,  789,  759,  817,  831
 653,  760,   39,   40,  790
 654,  761,   36,   37,  791
 655,   36,  761,  792,   35
 656,  792,  761,  818,  833
 657,  762,   33,   34,  793
 658,  778,  763,  816,  834
 659,  764,   29,   30,  794
 660,   29,  764,  765,   28
 661,  880,  879,  820,  840
 662,  796,   26,   27,  795
 663,   24,  753,  797,   23
 664,  797,  753,  821,  835
 665,  767,   21,   22,  798
 666,   21,  767,  768,   20
 667,   17,  769,  770,   16
 668,  800,  823,  895,  801
 669,  886,  935,  812, 1906
 670,  771,   13,   14,  801
 671,   74,   75, 1327,  498
 672,   72,   73,  499, 1323
 673,   69,   70,  488, 1322
 674, 1304,   78,   79, 1276
 675, 1305,   81,   82, 1278
 676, 1306,   84,   85, 1280
 677, 1307,   87,   88, 1282
 678, 1308,   90,   91, 1897
 679, 1309,   93,   94, 1286
 680, 1310,   96,   97, 1288
 681, 1311,   99,  100, 1290
 682, 1312,  102,  103, 1293
 683,  106, 1898,  105,    4
 684, 1313,  109,  110, 1292
 685, 1314,  112,  113, 1274
 686,  116, 1297, 1315,  115
 687, 1316, 1899, 1298,  748
 688, 1317,  120,  121, 1299
 689, 1318,  123,  124, 1301
 690, 1319,  126,  127, 1303
 691,  132, 1242, 1264,  131
 692, 1265, 1252,  711, 1363
 693,  140, 1255, 1266,  139
 694, 1267, 1900, 1257,  646
 695, 1268,  146,  147, 1260
 696, 1269,  149,  150, 1261
 697, 1270,  152,  153, 1901
 698, 1271,  155,  156, 1263
 699, 1272,  158,  159, 1247
 700,  161,  162, 1122, 1141
 701,    1,   12, 1896,  165
 702,  836,  817,  759,  788
 703,  752,   44,   45,  787
 704,  798,  797,  835,  808
 705,  753,   24,   25,  766
 706,  780,   59,   60,  774
 707,  887,  858,  845,  804
 708,  781,   56,   57,  775
 709,  829,  837,  783,  782
 710,  783,   53,   54,  782
 711,  924,  882,  883,  932
 712,  784,   50,   51,  776
 713,  838,  807,  758,  785
 714,  787,  786,  847,  805
 715,  790,  789,  831,  809
 716,  790,   40,   41,  789
 717,  824,  818,  761,  791
 718,  791,   37,   38,  777
 719,  793,  792,  833,  810
 720,  793,   34,   35,  792
 721,  794,  778,  834,  811
 722,   32,  763,  778,   31
 723,  794,   30,   31,  778
 724,  811,  839,  764,  794
 725,  819,  840,  795,  765
 726,   28,  765,  795,   27
 727,  798,   22,   23,  797
 728,  888,  885,  822,  827
 729,  779,  799,  844, 1906
 730,   20,  768,  799,   19
 731,  779,   18,   19,  799
 732,  769,  812, 1907,  770
 733,  801,  895, 1905,  771
 734,   16,  770,  800,   15
 735,  165, 1896,  802,  164
 736,  801,   14,   15,  800
 737,  774,  773,  813,  842
 738,  772,   62,   63,  849
 739,  814,  754,  780,  841
 740,  889,  887,  804,  828
 741,  815,  837,  877,  883
 742,  809,  843,  760,  790
 743,  825,  816,  763,  762
 744,  799,  768,  822,  844
 745,  804,  845,  755,  781
 746,  806,  846,  757,  784
 747,  851,  852,  817,  836
 748,  839,  819,  765,  764
 749,  840,  820,  796,  795
 750,  753,  766,  826,  821
 751,  827,  822,  768,  767
 752,  770, 1907,  823,  800
 753,  937,  802, 1905,  936
 754,  850,   65,   66, 1902
 755,  894, 1903,  892, 1904
 756,  837,  829,  853,  877
 757,  909,  860,  863,  910
 758,  836,  848,  860,  851
 759,  861,  862,  838,  846
 760,  807,  838,  862,  864
 761,  919,  856,  857,  931
 762,  870,  908,  916,  869
 763,  825,  810,  871,  876
 764,  868,  875,  839,  811
 765,  895,  935,  936, 1905
 766,  769,  779, 1906,  812
 767,  773,  772,  894,  813
 768,  890,  889,  828,  814
 769,  887,  897,  896,  858
 770,  756,  783,  837,  815
 771,  853,  921,  933,  877
 772,  912,  859,  855,  925
 773,  876,  872,  816,  825
 774,  852,  854,  831,  817
 775,  833,  818,  855,  859
 776,  881,  880,  840,  819
 777,  835,  821,  857,  856
 778,  827,  808,  884,  888
 779,  885, 1916,  844,  822
 780,  870,  869,  832,  843
 781,  866,  855,  818,  824
 782,  810,  833,  859,  871
 783,  874,  857,  821,  826
 784,  826,  820,  879,  874
 785,  856,  884,  808,  835
 786,  858,  853,  829,  845
 787,  843,  832,  777,  760
 788,  843,  809,  867,  870
 789,  834,  816,  872,  873
 790,  848,  836,  788,  752
 791,  848,  805,  863,  860
 792,  846,  838,  785,  757
 793,  846,  806,  878,  861
 794,  819,  839,  875,  881
 795,  842,  841,  780,  774
 796,  891,  890,  814,  841
 797, 1904,  842,  813,  894
 798,  809,  831,  854,  867
 799, 1906,  844, 1916,  886
 800,  806,  830,  882,  878
 801,  958,  909,  910,  959
 802,  850, 1902, 1039, 1012
 803,  480, 1909, 1065, 1124
 804,  852,  913,  911,  854
 805,  854,  911,  907,  867
 806,  924,  932,  975,  973
 807,  859,  912,  904,  871
 808,  900,  888,  884,  898
 809,  856,  919,  898,  884
 810,  858,  896,  921,  853
 811,  949,  904,  912,  966
 812,  805,  847,  865,  863
 813,  860,  909,  914,  851
 814,  861,  901,  918,  862
 815,  915,  865,  864,  917
 816,  847,  807,  864,  865
 817,  824,  832,  869,  866
 818,  926,  866,  869,  916
 819,  811,  834,  873,  868
 820,  875,  905,  903,  881
 821,  867,  907,  908,  870
 822,  876,  906,  927,  872
 823,  920,  873,  872,  927
 824,  873,  920,  928,  868
 825,  930,  874,  879,  922
 826,  880,  923,  922,  879
 827,  871,  904,  906,  876
 828,  902,  878,  882,  924
 829,  985,  946,  963,  476
 830,  905,  875,  868,  928
 831,  830,  815,  883,  882
 832,  878,  902,  901,  861
 833,  942,  900,  898,  969
 834,  934, 1008, 1916,  885
 835, 1916, 1008,  976,  886
 836,  897,  887,  889, 1929
 837,  890,  929, 1929,  889
 838,  893,  841,  842, 1904
 839,  940, 1091,  897, 1929
 840, 1911,  977,  899,  891
 841,  978,  929,  899, 1007
 842,  977, 1911,  892,  938
 843,  891,  841,  893, 1911
 844,  938,  892, 1903,  803
 845,  896,  939,  943,  921
 846,  891,  899,  929,  890
 847, 1034,  981,  942,  969
 848, 1075,  940,  978, 1028
 849,  888,  900,  934,  885
 850,  917,  954,  953,  915
 851,  932,  883,  877,  933
 852,  944,  901,  902,  945
 853,  947,  923,  903,  946
 854,  881,  903,  923,  880
 855,  948,  906,  904,  949
 856,  963,  905,  928,  967
 857,  951,  908,  907,  952
 858,  952,  907,  911,  962
 859,  908,  951,  955,  916
 860,  962,  961, 1047,  992
 861,  910,  863,  865,  915
 862,  995,  996,  953,  954
 863,  913,  852,  851,  914
 864,  925,  855,  866,  926
 865,  914,  960,  961,  913
 866,  909,  958,  960,  914
 867,  917,  864,  862,  918
 868,  918,  950,  954,  917
 869,  901,  944,  950,  918
 870,  931,  857,  874,  930
 871,  900,  942,  941,  934
 872,  920,  965,  967,  928
 873,  922,  971,  974,  930
 874,  916,  955,  964,  926
 875,  926,  964,  968,  925
 876,  936,  935,  886,  976
 877,  906,  948,  957,  927
 878,  927,  957,  965,  920
 879,  905,  963,  946,  903
 880,  944,  945,  983,  984
 881,  921,  943,  970,  933
 882,  934,  941,  956, 1008
 883,  936,  976,  979,  937
 884,  935,  895,  823, 1907
 885,  472,  977,  938,  980
 886,  943,  939,  473,  982
 887,  896,  897, 1091,  939
 888,  929,  978,  940, 1929
 889,  981,  956,  941,  942
 890,  969,  919,  931,  972
 891,  950,  944,  984,  987
 892,  902,  924,  973,  945
 893,  975,  932,  933,  970
 894, 1999,  945,  973,  975
 895,  985,  994,  947,  946
 896,  923,  947,  971,  922
 897,  986,  990,  948,  949
 898,  966,  912,  925,  968
 899,  949,  966,  988,  986
 900,  950,  987,  995,  954
 901,  951,  952,  989,  993
 902,  962,  911,  913,  961
 903,  952,  962,  992,  989
 904,  953,  996,  999,  959
 905,  915,  953,  959,  910
 906,  993, 1000,  955,  951
 907,  981, 1037, 1031,  956
 908,  990, 1001,  957,  948
 909,  960,  958,  997,  998
 910, 1001, 1002,  965,  957
 911,  476,  963,  967, 2005
 912, 1000, 1003,  964,  955
 913, 1003, 1052,  968,  964
 914,  931,  930,  974,  972
 915, 1034,  969,  972,  477
 916,  991,  983,  945, 1999
 917,  947,  994, 1005,  971
 918, 1005, 1009,  974,  971
 919,  970,  943,  982, 1004
 920,  478,  979,  976, 1008
 921, 1007,  899,  977,  472
 922, 1006,  979,  478, 1032
 923,  979, 1006, 1010,  937
 924, 1034,  477, 1046, 1049
 925, 1058, 1952, 1073, 1102
 926, 1024, 1004, 1033, 1063
 927,  970, 1004, 1999,  975
 928,  991, 1999, 1004, 1024
 929, 1060,  987,  984, 1030
 930, 1027, 1040, 1082, 2013
 931, 1013,  994,  985, 1050
 932,  986, 1026, 1014,  990
 933, 1052,  988,  966,  968
 934, 2035,  988, 1052,  475
 935, 1015,  989,  992, 2036
 936,  989, 1015, 1016,  993
 937,  990, 1014, 1018, 1001
 938, 1033, 1004,  982,  473
 939, 2036,  992, 1047,  474
 940,  994, 1013, 1025, 1005
 941, 1074, 2024, 1017, 1060
 942,  995,  987, 1060, 1017
 943,  999,  996, 2024, 1019
 944,  998,  997, 1022, 1021
 945,  999,  997,  958,  959
 946,  474, 1047,  998, 1021
 947,  961,  960,  998, 1047
 948, 2024,  996,  995, 1017
 949, 1000, 1020, 1023, 1003
 950, 1027, 2005, 1002, 1040
 951,  965, 1002, 2005,  967
 952,  475, 1052, 1003, 1023
 953, 1063, 1078, 1056, 1024
 954, 1075, 1059,  473,  939
 955, 1035, 1010, 1006, 1103
 956, 1032,  478, 1031, 1058
 957,  472, 1011, 1036, 1007
 958, 1009,  477,  972,  974
 959, 1057, 1913, 1085, 1093
 960, 1011,  472,  980, 1038
 961, 1909,  480, 1920, 1910
 962, 1050,  985,  476, 2026
 963, 1070, 1025, 1013, 1053
 964, 1026,  986,  988, 2035
 965, 1040, 1062, 1071, 1082
 966, 1041, 1061, 1079, 2052
 967, 2052, 1043, 1016, 1015
 968, 1030, 1056, 1080, 1060
 969, 1021, 1022, 1048,  474
 970, 1022,  997,  999, 1019
 971, 1016, 1043, 2054, 1020
 972, 1048, 1068, 1077, 1066
 973, 1054, 1072, 1026, 2035
 974, 1089, 1115, 1069, 1042
 975,  475, 1045, 1054, 2035
 976, 1076, 1051, 1072, 1098
 977, 2005, 1027, 2026,  476
 978, 1029,  477, 1009, 1055
 979, 1058, 1031, 1037, 1952
 980, 1968, 1033,  473, 1059
 981, 1046,  477, 1029, 1095
 982, 1122, 1035, 1103,  487
 983,  162,  163, 1035, 1122
 984, 1011, 1038, 1064, 1913
 985, 1920, 1086, 1064, 1910
 986, 1910, 1064, 1038, 1012
 987,   66,   67, 1377, 1902
 988, 1039,  479, 1065, 1909
 989, 1072, 1051, 1014, 1026
 990, 1053, 2013, 1111, 1089
 991, 1066, 1061,  474, 1048
 992, 1115, 1089, 1111, 1116
 993, 1055, 1042, 1069, 1029
 994, 1043, 1067, 1094, 2054
 995, 1020, 2054, 1045, 1023
 996, 1098, 2060, 1081, 1107
 997, 1029, 1069, 1110, 1095
 998, 1073, 1952, 1046, 1095
 999, 1079, 1061, 1066, 2053
1000, 1058, 1102, 1084, 1032
1001, 1952, 1037, 1049, 1046
1002, 1018, 1051, 1062, 1040
1003, 1054, 1045, 1081, 2060
1004, 1042, 1055, 1025, 1070
1005, 1060, 1080, 1090, 1074
1006, 1100, 1085, 1086, 1123
1007, 2024, 1074, 1096, 1044
1008, 1078, 1063, 1083, 1099
1009, 1090, 1080, 1101, 1118
1010, 1061, 1041, 2036,  474
1011, 1071, 1062, 1051, 1076
1012, 1083, 1063, 1033, 1968
1013, 1086, 1085, 1913, 1064
1014, 2053, 2048, 2049, 1067
1015, 1094, 1109, 1107, 1081
1016, 1130, 1106, 1127, 1142
1017, 1077, 1092, 1087, 2048
1018, 1071, 1076, 1088, 1097
1019, 1102, 1136, 1165, 1084
1020, 1074, 1090, 1114, 1096
1021, 1075, 1057, 1093, 1059
1022, 1098, 1113, 1088, 1076
1023, 1092, 1077, 1068, 1112
1024, 1101, 1080, 1056, 1078
1025, 1066, 1077, 2048, 2053
1026, 1094, 1081, 1045, 2054
1027, 1082, 2023, 1111, 2013
1028, 1099, 1083, 1119, 1131
1029,  487, 1103, 1084, 1165
1030, 1937, 1119, 1083, 1968
1031, 1913, 1057, 1036, 1011
1032, 1104,  480, 1124, 1140
1033, 1093, 1085, 1100, 1937
1034, 1087, 1106, 1121, 2048
1035, 1120, 1097, 1088, 1133
1036, 1115, 1139, 1110, 1069
1037, 1089, 1042, 1070, 1053
1038, 1075,  939, 1091,  940
1039, 1121,  483, 1129, 1126
1040, 1109, 1094, 1067, 2049
1041, 1096, 1112, 1068, 1044
1042, 1127, 1092, 1112, 1128
1043, 1059, 1093, 1937, 1968
1044, 1114, 1128, 1112, 1096
1045, 1071, 1097, 2023, 1082
1046, 1113, 1098, 1107, 1125
1047, 1099, 1131, 1132, 1117
1048, 1101, 1078, 1099, 1117
1049, 1100,  481, 1119, 1937
1050, 2004, 1101, 1117, 1132
1051, 1114, 1090, 1118, 1128
1052, 1102, 1073, 1108, 1136
1053, 1095, 1110, 1108, 1073
1054, 1970, 1945, 1135, 1155
1055, 1234, 1239,  489, 1367
1056, 1239,  490, 1921, 1105
1057,  483, 1121, 1106, 1130
1058, 1106, 1087, 1092, 1127
1059, 1125, 1107, 1109, 1134
1060, 1121, 1126, 2049, 2048
1061, 1126, 1134, 1109, 2049
1062,  486, 1108, 1110, 1139
1063, 1111, 2023, 2012, 1116
1064, 1115, 1116, 1137, 1139
1065, 1116, 2012, 2009, 1137
1066, 2004, 1146, 1118, 1101
1067, 1131, 1119,  481, 1984
1068,  484, 1151, 1147, 1133
1069, 1097, 1120,  485, 2009
1070, 1925, 1175,  497, 1324
1071,  481, 1100, 1123, 1967
1072, 1123, 1086, 1928, 1945
1073,  490, 1140, 1124, 1921
1074,  484, 1133, 1113, 1125
1075, 1171, 1225, 1158, 1144
1076, 1143, 1129,  483, 1144
1077, 1163, 1159, 1170, 1181
1078, 1984, 1967, 1970, 1155
1079,  482, 2004, 1132, 1152
1080, 1125, 1134, 1159,  484
1081, 1984, 1155, 1152, 1132
1082, 1945, 1970, 1967, 1123
1083, 1154, 1137, 2009,  485
1084, 2008, 1156, 1174, 1164
1085,  485, 1120, 1138, 1148
1086, 1140,  490, 1168, 1153
1087,  497, 1246, 1141, 1324
1088, 1144,  483, 1130, 1160
1089, 1205, 1158,  493, 1211
1090, 1171, 1144, 1160, 1173
1091, 1159, 1134, 1145, 1170
1092, 1118, 1146, 2029, 1128
1093, 1157, 1142, 2029,  482
1094, 1147, 1151, 1156, 2008
1095, 1177, 1167, 1150, 1162
1096, 1947, 1175, 1925, 1149
1097, 1165, 1925, 1324,  487
1098, 1154, 1150, 1139, 1137
1099,  484, 1159, 1163, 1151
1100, 1156, 1151, 1163, 1179
1101, 1161, 1157,  482, 1152
1102, 1189, 1183,  491, 1153
1103, 1993, 1164, 1973, 1162
1104, 1135, 1169, 1166, 1155
1105, 1173, 1160, 1157, 1161
1106, 1181, 1178, 1199,  494
1107, 1170, 1145, 1129, 1143
1108, 1177, 1162, 1973, 1182
1109, 1162, 1150, 1154, 1993
1110,  495, 1973, 1164, 1174
1111, 1148, 2008, 1164, 1993
1112,  491, 1176, 1166, 1169
1113, 1172, 1166, 1176, 1185
1114, 1212, 1175, 1947,  496
1115, 1149,  486, 1167, 1947
1116,  505, 1189, 1233, 1350
1117, 1104, 1135, 1945, 1928
1118, 1179, 1163, 1181,  494
1119, 1173, 1184, 1225, 1171
1120, 1161, 1152, 1172, 1180
1121, 1173, 1161, 1180, 1184
1122, 1180, 1185, 1987,  492
1123, 1167, 1177,  496, 1947
1124, 1170, 1143, 1178, 1181
1125, 1199, 1205, 1201, 1195
1126, 1184, 1180,  492, 1221
1127, 1187, 1958, 1191, 1196
1128, 1177, 1182, 1203,  496
1129, 1354, 1183, 1189,  505
1130, 1188, 1183, 1193, 1987
1131, 1221, 1215, 1225, 1184
1132,  495, 1194, 1191, 1958
1133, 1206, 1200,  510, 1218
1134, 1987, 1193, 1192,  492
1135, 1214, 1191, 1194, 1198
1136, 1214, 1198,  508, 1219
1137,  509, 1196, 1191, 1214
1138, 1194,  495, 1174, 1186
1139,  506, 1216, 1222, 1192
1140,  505, 1230, 1969, 1354
1141,  506, 1192, 1193, 1969
1142, 1202, 1195, 1201, 1207
1143, 1197, 1196,  509, 1204
1144, 1196, 1197, 1200, 1187
1145, 1238, 1197, 1204, 1241
1146, 1208,  509, 1214, 1219
1147, 1178, 1158, 1205, 1199
1148, 1211, 1207, 1201, 1205
1149, 1209, 1202, 1207,  507
1150,  508, 1198, 1202, 1209
1151, 1207, 1211, 1210,  507
1152, 1217, 1213,  508, 1209
1153, 1215, 1210, 1211,  493
1154,  497, 1175, 1212, 1240
1155, 1220, 1988, 1213, 1335
1156,  508, 1213, 1988, 1219
1157, 1225, 1215,  493, 1158
1158, 1227, 1226, 1216,  506
1159, 1209,  507, 1223, 1217
1160, 1335, 2003, 2019,  522
1161, 1240, 1218,  511, 1247
1162,  522, 1224, 1220, 1335
1163, 1208, 1988, 1220, 1229
1164, 1221,  492, 1192, 1222
1165, 1223,  521, 2003, 1217
1166,  507, 1216, 1226, 1223
1167, 1224, 1231, 1399,  523
1168,  520, 1236, 1226, 1227
1169, 1230,  505, 1326, 1325
1170, 1969, 1230, 1227,  506
1171, 1348, 1232,  521, 1236
1172, 1350, 1233,  504, 1404
1173, 1234, 1367, 1374,  504
1174, 1235, 1321, 1340,  489
1175, 1105, 1235,  489, 1239
1176, 1236,  520, 1349, 2010
1177,  510, 1238, 1343, 1237
1178, 1393, 1237, 1343, 1416
1179,  524, 1343, 1238, 1241
1180, 1272, 1247,  511, 1330
1181,  740, 1264, 1242, 1385
1182,  686, 1371, 1243, 1254
1183, 1336, 1253, 1243, 1371
1184, 1244, 1271, 1380,  553
1185,  590, 1368, 1245, 1269
1186, 1263, 1248,  525, 1358
1187,  566, 1373, 1249, 1270
1188, 1265,  134,  135, 1252
1189,  659, 1376, 1255, 1256
1190, 1347, 1266, 1255, 1376
1191, 1257, 1258, 1383,  646
1192,  617, 1360, 1259, 1268
1193, 1261, 1342,  590, 1269
1194,  740, 1355,  751, 1264
1195, 1353, 1267,  646, 1468
1196, 1380, 1271, 1263, 1358
1197, 1292, 1273,  744, 1361
1198,  745, 1370, 1274, 1296
1199,  512, 1327, 1275, 1304
1200, 1304, 1276, 1382,  512
1201,  539, 1359, 1277, 1305
1202, 1279,   83,   84, 1306
1203, 1278, 1388,  539, 1305
1204,  567, 1364, 1279, 1306
1205,  591, 1372, 1281, 1307
1206,  618, 1375, 1283, 1308
1207, 1285, 1309, 1379,  632
1208,  660, 1356, 1286, 1287
1209,  687, 1362, 1288, 1289
1210,  712, 1369, 1290, 1291
1211,  743, 1313, 1292, 1361
1212, 1295,  742,  741, 1898
1213, 1889, 1297, 1890,  747
1214,  749, 1357, 1299, 1300
1215,  750, 1365, 1301, 1302
1216,  751, 1409, 1303, 1328
1217, 1892, 1316,  748, 1893
1218,  747, 1890, 1899, 1316
1219, 1323, 1320,   71,   72
1220, 1320, 1544, 1527,  488
1221,   67,   68, 1321, 1377
1222, 1322, 1321,   68,   69
1223, 1980, 1979, 1332, 1996
1224, 1980, 1349,  520, 1325
1225,  519, 1979, 1326, 1329
1226, 1398, 1994, 1423, 2006
1227,  518,  519, 1329, 1960
1228, 1997, 1996, 1408, 1414
1229, 1392,  604, 1424, 1405
1230, 1874, 1875, 1337, 1372
1231, 1534,  750, 1338, 1528
1232, 1912, 1490, 1389,  503
1233, 1341, 1882, 1877,  745
1234, 1394,  579, 1428, 1402
1235, 1343,  524, 1407, 1416
1236, 1407, 1344, 1410,  538
1237, 1410, 1344, 1399,  537
1238, 1348,  535, 1346, 1232
1239, 1843, 1351, 1844,  633
1240, 1284, 1351, 1850,  618
1241, 1420, 1352, 1395,  552
1242, 1262, 1352, 1401,  566
1243, 1267, 1353, 1501,  659
1244, 1831,  735, 1894,  736
1245, 1416, 1400, 1358,  525
1246,  743, 1361, 1932,  729
1247, 1930,  750, 1534,  738
1248, 1387, 1365,  737, 1931
1249, 1231, 1366,  537, 1399
1250, 1871, 1874, 1870,  592
1251, 1421, 1401,  565, 1449
1252,  659, 1501, 1512, 1376
1253,  552, 1395, 1411, 1445
1254,  735, 1838, 1381, 1357
1255, 1381, 1838, 1893,  748
1256,  726, 1450, 1914, 1385
1257, 1606,  499,  514, 1610
1258, 1390, 1346,  535, 1418
1259, 1389,  502, 1461, 1415
1260, 1406, 1390, 1419,  550
1261, 1959, 1430, 1391, 1936
1262, 1404, 1391, 1430, 1960
1263, 1394, 1342, 1373, 1421
1264, 1395,  553, 1380, 1411
1265, 1413, 1453,  552, 1445
1266, 1396,  537, 1366, 1981
1267,  534, 1417, 1397, 2010
1268,  519,  518, 1398, 1995
1269, 1994, 1425,  532, 1423
1270, 1411, 1400,  538, 1445
1271,  710, 1427, 1403, 1657
1272,  616, 1426, 1405, 1424
1273, 1429, 1981, 1406,  550
1274, 2020, 2006, 1423, 1440
1275, 2032, 1412, 1454,  547
1276, 1414, 1408, 1431, 2022
1277,  551, 1453, 1413, 1396
1278, 1417,  534, 1448, 1452
1279,  534, 1997, 1414, 1448
1280, 1936, 1415,  517, 1959
1281, 1451, 1419,  549, 1465
1282, 1447, 1420,  552, 1453
1283,  579, 1394, 1421, 1449
1284,  603,  604, 1441, 1471
1285,  604, 1392, 1422, 1441
1286,  532, 1460, 1488, 1433
1287, 1436,  603, 1455, 1446
1288, 1469, 1978, 1430, 1959
1289, 1951,  616, 1446,  615
1290, 1938, 1450, 1427,  710
1291, 1437,  578, 1457, 1443
1292, 1432, 1425, 1469, 1520
1293,  518, 1960, 1430, 1978
1294, 1520, 1469, 1959,  517
1295, 1476, 1433,  546, 2034
1296,  631, 1439, 1935, 1463
1297,  645, 1468, 1434, 1522
1298, 1456, 1435, 1442,  563
1299, 1470, 1447, 1453,  551
1300, 1951, 1489, 1935, 1439
1301, 1440, 1454, 1412, 2020
1302, 1471, 1441, 1428, 1443
1303, 1471, 1443, 1457, 1479
1304, 1462, 1444, 1525, 1503
1305,  565, 1420, 1447, 1466
1306, 1448, 1414, 2022,  548
1307, 1449,  565, 1466, 1499
1308, 1499, 1466,  564, 1477
1309, 1458, 1914,  725, 1487
1310,  563, 1442, 1451, 1482
1311,  549, 1418, 1452, 1467
1312, 2034,  546, 1502,  560
1313,  615, 1446, 1455, 1483
1314, 1435, 1456,  564, 1470
1315, 1473,  578, 1477, 1480
1316, 1493, 1458,  739, 1528
1317, 2033, 1507,  561, 1485
1318,  502, 1474,  516, 1461
1319,  531, 1432, 1520, 1462
1320,  630,  644, 1463, 1935
1321, 1522, 1463,  644, 1943
1322, 1464, 1675, 1704,  709
1323, 1485, 1467,  548, 2033
1324, 1475, 1479, 1989, 1500
1325, 1526, 1472,  602, 1538
1326, 1506, 1504, 1473,  577
1327, 1474,  502, 1492,  501
1328,  602, 1472, 1475, 1500
1329, 2050, 1481, 2034,  560
1330, 1499, 1477,  578, 1437
1331, 1457, 1504, 1989, 1479
1332,  577, 1473, 1480, 1516
1333, 1481, 2047, 1459,  547
1334,  615, 1497, 1489, 1951
1335, 1502,  546, 1508, 1509
1336, 1519,  575, 1545,  561
1337,  739, 1458, 1487,  724
1338,  724, 1487,  725, 1949
1339,  546, 1433, 1488, 1508
1340, 1460, 1484, 1508, 1488
1341,  630, 1935, 1489, 1495
1342, 1497,  615, 1483,  614
1343,  502, 1389, 1490, 1492
1344, 1340, 1378, 1490, 1912
1345,  544, 1521,  545, 1491
1346, 1494, 1545, 1524,  576
1347, 1498, 1494,  576, 1561
1348, 1495,  629, 1517,  630
1349, 2047, 1496, 1536, 1507
1350, 1515, 1497,  614, 1540
1351, 1518, 1561,  576, 1542
1352, 1523, 1491, 1503,  530
1353,  589, 1989, 1504, 1506
1354, 1505, 1943, 1723,  657
1355, 1756, 1505,  657, 1758
1356, 1509,  545, 1521,  559
1357, 1510, 1518, 1542,  588
1358, 1511, 1510,  588, 1556
1359,  575, 1519, 1546, 1555
1360, 1589, 1568, 1512, 1541
1361, 1549, 1513, 1539,  574
1362,  602, 1500, 1514,  601
1363,  644,  630, 1517, 1683
1364, 1561,  577, 1516, 1498
1365, 1723, 1943,  644, 1683
1366,  614, 1483, 1526, 1533
1367,  501, 1492, 1527, 1544
1368, 1564, 1592,  587, 1563
1369, 1542, 1529, 1592,  588
1370, 1540, 1551, 1530, 1515
1371, 1530,  628, 1557,  629
1372, 1548, 1539, 1531,  559
1373,  560, 1502, 1531, 1513
1374, 1538,  602,  601, 1553
1375, 1541,  658, 1756,  671
1376, 1558,  544, 1537, 1982
1377,  515, 1554,  500, 1606
1378,  573, 1580, 1548, 1581
1379, 1570,  574, 1593, 1595
1380, 1564, 1605, 2028, 1556
1381, 1569, 1550, 2028,  600
1382,  613, 2016, 1572, 1575
1383, 1555, 1552, 1563,  587
1384, 1563,  586, 1613, 1584
1385,  613, 1533, 1553, 2016
1386, 1554,  515, 1567, 1578
1387, 1529, 1555,  587, 1592
1388, 1556,  588, 1592, 1564
1389, 1347, 1376, 1512, 1568
1390, 1578, 1567, 1559, 1535
1391, 1567,  515, 1594, 1574
1392, 1537, 1560,  543, 1982
1393, 1576, 2015,  558, 1547
1394, 1613,  586, 1570, 1595
1395, 1575, 1583, 1565, 1551
1396, 1565,  627, 1587,  628
1397, 1588, 1566, 1573,  528
1398, 1566,  542, 1596,  543
1399, 1347, 1568,  685,  686
1400, 1569,  600, 1582, 1572
1401, 1552, 1570,  586, 1563
1402,  573, 1571, 1590, 1585
1403, 1575, 1572,  612, 1583
1404, 1574,  529, 1559, 1567
1405,  528, 1573, 1574, 1594
1406,  572, 2015, 1576, 1616
1407, 1609, 1586, 1596,  542
1408, 1581, 1548,  559, 1562
1409, 2042, 1605, 1584,  599
1410,  612, 1572, 1582, 1612
1411, 2042,  599, 2057, 1601
1412,  584, 1599, 1585, 1600
1413, 1628, 1597, 1607,  556
1414,  528, 1602, 1624, 1588
1415, 1768, 1589, 1782,  684
1416,  583, 1600, 2039, 1620
1417, 1595, 1593,  585, 2056
1418,  585, 2055, 1642, 1598
1419,  543, 1596, 1579, 1982
1420, 1647, 1623,  570, 1644
1421,  598, 2059, 1598, 1642
1422,  584, 1626, 2044, 1621
1423, 1593, 1599, 2055,  585
1424,  583, 2018, 1685, 1626
1425, 1612,  611, 1608,  612
1426,  527, 1624, 1602, 1625
1427, 1602,  528, 1594, 1610
1428, 1629, 1603,  685, 1768
1429, 1608, 1618,  626, 1604
1430, 1630, 1604,  626, 1648
1431,  600, 2028, 1605, 2042
1432,  556, 1607, 1586, 1609
1433, 1627, 1948, 1632, 1924
1434,  599, 1584, 1613, 1619
1435,  642, 1633, 1614, 1631
1436, 1631, 1615,  641,  642
1437, 1620, 1616, 1622, 1646
1438, 2057,  599, 1619, 2058
1439,  611, 1612, 1617, 1656
1440, 1636, 1618, 1638, 1651
1441, 1659,  598, 1649,  597
1442,  597, 1649, 1621, 2044
1443,  571, 1623, 1645, 1622
1444,  582, 1646, 1622, 1645
1445, 1645, 1623,  581, 1653
1446, 1624,  527, 1643,  541
1447,  596, 1626, 1685, 1658
1448, 2044, 1626,  596, 1691
1449, 1627,  556, 1609, 1948
1450,  570, 1597, 1628, 1644
1451, 1665, 1630, 1648,  640
1452,  540,  555, 1634, 1643
1453, 1656,  610, 1638,  611
1454, 1660, 1636,  625, 1684
1455, 1652, 1637, 1640,  656
1456, 1637, 1652, 1662,  643
1457, 1670, 1663, 1639,  655
1458, 1657, 1641, 1603, 1675
1459, 1957,  580, 1654,  581
1460, 1680, 1655, 2000, 1678
1461,  583, 1620, 1646, 2018
1462,  581, 1623, 1647, 1957
1463, 1650, 1627, 1924, 1664
1464, 1671, 1651, 1674, 1686
1465, 1670, 1690, 1700,  656
1466, 2001, 1719, 1662, 1652
1467, 1653, 1681, 1678, 2000
1468, 1645, 1653, 2000,  582
1469,  595, 1669, 1655, 1680
1470,  610, 1656, 1635, 1659
1471, 1698, 1674,  610, 1659
1472,  655, 1639, 1661, 1676
1473, 1661,  641, 1665, 1677
1474, 1723, 1662, 1719,  657
1475,  656, 1640, 1663, 1670
1476, 1677, 1665,  640, 2038
1477,  597, 1682, 1698, 1659
1478, 1720, 1693, 2037, 1721
1479, 1718, 1687, 1706, 1724
1480,  596, 1658, 1669, 1695
1481, 2030, 1699, 1705,  668
1482, 1672,  669, 1694, 1673
1483,  670, 1702, 1673, 1694
1484, 2051, 1686, 1674, 1698
1485,  654, 1720, 1715, 1689
1486, 2037, 1693, 2038,  640
1487, 1875, 1679,  568, 1879
1488,  582, 2000, 1655, 2017
1489, 1703, 1668,  593, 1714
1490, 2051, 1698, 1682, 2031
1491, 1691, 1682,  597, 2044
1492, 2041, 2051, 2031, 1696
1493, 1671, 1686,  624, 1697
1494, 1736,  594, 1703, 1714
1495,  595, 1680, 1687, 1718
1496, 1709, 2045, 1697,  624
1497, 1713, 1688, 2045,  638
1498,  669, 1672, 1700, 1722
1499, 1716, 1691,  596, 1695
1500, 1692,  608, 1707,  609
1501, 1710, 1712,  670, 1694
1502,  623, 1711, 1728, 1745
1503,  655, 1676, 1699, 2030
1504, 2001, 1673, 1702, 1719
1505, 1749,  667, 1738, 1783
1506, 1718,  608, 1692,  595
1507, 1750, 1724, 1747, 1761
1508,  681, 1742,  669, 1722
1509, 1712, 1710, 1731,  683
1510, 2041, 2040, 1686, 2051
1511, 1713,  653, 1721,  639
1512, 1688, 1713,  639, 1684
1513,  592,  593, 1701, 1871
1514, 1689, 1715, 1738,  667
1515, 1682, 1691, 1716, 2031
1516,  653, 1753, 1720, 1721
1517, 1693, 1720,  654, 2038
1518,  608, 1718, 1724, 1750
1519,  607, 1757, 1765, 1775
1520, 2025, 1729,  623, 1743
1521, 1751, 1725,  637, 1767
1522, 1744, 1730, 1726,  680
1523, 1727,  622, 1745, 1728
1524, 1740, 1728, 1711, 2040
1525, 1731, 1998, 1748,  683
1526, 1722, 1690, 1732,  681
1527, 1782, 1733, 1769,  684
1528,  670, 1712, 1733, 1754
1529, 1734, 1781, 1785, 1946
1530, 1949, 1734, 1946,  724
1531, 1864, 1735,  592, 1870
1532, 1735,  605, 1780,  606
1533, 1769, 1737,  697,  684
1534,  683, 1748, 1737, 1769
1535, 1743,  623, 1745, 1759
1536,  637, 2025, 1743, 1773
1537, 1777, 1766, 1770, 1795
1538,  681, 1730, 1744, 1764
1539,  622, 1761, 1776, 2027
1540, 1964,  708, 1983,  722
1541,  622, 1727, 1750, 1761
1542, 1755, 2011,  682, 1742
1543, 2014, 1783, 2002,  679
1544, 1778, 1751, 1767,  651
1545,  666, 1763, 1800, 1788
1546,  653, 1713, 1752, 1763
1547,  684,  697, 1629, 1768
1548, 2011, 1755, 1784, 1760
1549,  607, 1775, 1992, 1747
1550, 1761,  621, 1774, 1776
1551, 1772, 1985, 1986, 1762
1552, 1763, 1752,  652, 1800
1553,  696, 1755, 1764, 1986
1554, 1793, 1775,  620, 1823
1555, 1972, 1781,  708, 1964
1556,  680, 1749, 1766, 1777
1557, 1770,  679, 1791,  694
1558, 1771,  696, 1789,  706
1559, 1771,  706, 1792,  707
1560, 1985, 1789,  696, 1986
1561, 1773,  636, 1794, 1779
1562, 1774,  621, 1793, 1974
1563,  635, 1786, 1774, 1974
1564, 1802, 1779, 1794,  650
1565,  619,  605, 1854, 1850
1566,  619, 1827, 1780,  605
1567,  723, 1785, 1781, 1972
1568, 1946, 1785, 1930,  738
1569, 1796, 1990, 1810,  649
1570, 1795, 1801,  695, 1777
1571, 1808, 1799, 2002, 1788
1572, 1818, 1790, 1816,  665
1573, 1818, 1788, 1800, 1790
1574, 1792,  722, 1983,  707
1575, 1794,  636, 1786, 1990
1576, 1787,  695, 1801, 1991
1577,  635, 1810, 1990, 1786
1578, 1807, 1796,  649, 1846
1579,  706, 1789, 1797, 1806
1580, 1976, 1975,  694, 1791
1581,  704, 1809, 1991, 1801
1582,  703, 1966, 1803, 1975
1583,  720,  705, 1809, 1833
1584, 1824, 1805, 1814,  664
1585, 1816, 1805, 1824,  665
1586,  650, 1796, 1807, 1814
1587, 1808, 1818,  665, 1812
1588, 1991, 1809,  705, 1787
1589,  635, 1974, 1963, 1811
1590, 1963, 1858,  648, 1811
1591, 1848, 1811,  648, 1944
1592,  677, 1821,  678, 1812
1593, 1813, 1965, 1822,  704
1594, 1819, 1820, 1815, 1942
1595,  721, 1806, 1815, 1820
1596, 1837, 1830,  703,  693
1597, 1822, 1965, 1832,  719
1598,  720, 1833, 1826, 1942
1599, 1820, 1819, 1838,  735
1600, 1820,  735, 1831,  721
1601, 1833, 1822,  719, 1826
1602, 1963, 1823,  634, 1858
1603, 1812, 1825, 1834,  677
1604, 1884,  733,  719, 1832
1605,  733, 1842, 1826,  719
1606, 1843, 1828, 1827,  619
1607,  633, 1836, 1858,  634
1608, 1835, 1829,  664, 1841
1609,  717, 1868, 1830, 1862
1610, 1845, 1839,  676,  675
1611, 1977, 1835,  663, 1961
1612, 1852, 1836,  633, 1844
1613, 1858, 1836, 1867,  648
1614, 1837,  692, 1847,  702
1615, 1842, 1892, 1893,  734
1616, 1849, 1971, 1846, 1857
1617,  662, 1855, 1849, 1857
1618, 1852,  647, 1867, 1836
1619, 1853, 1861, 1862,  702
1620, 1864, 1854,  605, 1735
1621, 1941, 1855,  662, 1865
1622, 1961,  663, 1855, 1941
1623, 1856,  690,  700,  701
1624, 1859, 1863, 1860,  661
1625, 1862, 1861, 1872,  717
1626,  647, 1860, 1863, 1867
1627, 1864, 1345, 1375, 1854
1628, 1940, 1941, 1865, 1922
1629,  717, 1872, 1873, 1869
1630, 1882, 1915, 1869, 1877
1631,  731, 1873, 1872, 1878
1632, 1871, 1679, 1875, 1874
1633, 1331, 1370, 1876, 1883
1634, 1883,  731, 1880,  730
1635, 1886, 1364,  568, 1664
1636, 1880, 1954, 1885,  730
1637, 1915, 1882, 1887,  732
1638,  732, 1887, 1889, 1888
1639, 1885,  715, 1956, 1955
1640,  555,  554, 1886, 1923
1641, 1891, 1888, 1889,  747
1642, 1891,  747, 1316, 1892
1643, 1933, 1917,  728,  729
1644,  802, 1896,  771, 1905
1645, 1897,   91,   92, 1285
1646, 1900,  142,  143, 1257
1647, 1901,  153,  154, 1244
1648, 1904,  892, 1911,  893
1649, 1012, 1039, 1909, 1910
1650,  725, 1914, 1450, 1938
1651,  713, 1917, 1933, 1934
1652, 1895, 1918,  698,  714
1653, 1919,  688, 1939,  689
1654, 1940, 1922, 1919,  689
1655, 1086, 1920,  480, 1928
1656, 1632, 1634, 1923, 1924
1657, 1950, 1931,  737,  723
1658,  736, 1894, 1931, 1950
1659, 1955, 1934, 1933, 1953
1660, 1895,  714,  699, 1962
1661, 1941, 1940,  674, 1961
1662, 1954, 1880, 1881, 1866
1663, 1955, 1956,  714, 1934
1664, 1958, 1182, 1973,  495
1665, 1966, 1965, 1813, 1803
1666, 1817, 1832, 1965, 1966
1667, 1835, 1841, 1971,  663
1668,  693,  703, 1975, 1976
1669, 1979,  519, 1995, 1332
1670, 1325, 1326, 1979, 1980
1671, 1772,  695, 1787, 1985
1672, 1994, 1398,  518, 1978
1673, 1349, 1980, 1996, 1997
1674, 1349, 1997,  534, 2010
1675,  521, 1232, 2019, 2003
1676,  482, 2029, 1146, 2004
1677, 2008, 1148, 1138, 1147
1678, 1825, 1812,  665, 1824
1679, 1097, 2009, 2012, 2023
1680, 2013, 1053, 2026, 1027
1681, 2014, 1766, 1749, 1783
1682, 1646,  582, 2017, 2018
1683, 2020, 1412,  533, 2006
1684, 1431, 2021, 1412, 2032
1685, 2025,  637, 1725, 1709
1686, 1696, 1740, 2040, 2041
1687, 1496, 2047, 1481, 2050
1688, 2043, 1467, 1485, 1486
1689, 1729, 2040, 1711,  623
1690, 1617, 1601, 2057, 2058
1691, 1079, 1067, 1043, 2052
1692, 2060, 1098, 1072, 1054
1810,  166,  167, 2851, 5257
1811, 5257,  369,    6,  166
1812, 2820, 2810,  366,  367
1813, 2811,  364,  365, 2819
1814, 2812,  362,  363, 2818
1815, 2813,  360,  361, 2817
1816, 2814,  358,  359, 2816
1817, 2808,  356,  357, 2815
1818,  354, 2807, 2749,  353
1819,  352, 2806, 2750,  351
1820,  350, 2805, 2751,  349
1821,  348, 2804, 2752,  347
1822,  346, 2803, 2753,  345
1823,  344, 2802, 2754,  343
1824,  342, 2801, 2755,  341
1825, 2756,  339,  340, 2800
1826, 2757,  337,  338, 2799
1827, 2758,  335,  336, 2798
1828, 2759,  333,  334, 2797
1829, 2795,  331,  332, 2796
1830,  329, 2794, 2761,  328
1831,  327, 2793, 2762,  326
1832,  325, 2792, 2763,  324
1833,  323, 2791, 2764,  322
1834,  321, 2790, 2765,  320
1835,  319, 2789, 2766,  318
1836,  317, 2788, 2767,  316
1837, 2768,  314,  315, 2787
1838, 2769,  312,  313, 2786
1839, 2770,  310,  311, 2785
1840, 2771,  308,  309, 2784
1841, 2782,  306,  307, 2783
1842,  304, 2781, 2773,  303
1843,  302, 2780, 2774,  301
1844,  300, 2779, 2775,  299
1845,  298, 2778, 2776,  297
1846,   13, 2822, 2821,   14
1847,   12, 2777, 2822,   13
1848,  296, 2777,   12,    1
1849,  167,  168, 2823, 2851
1850, 3235, 2084, 3340, 5283
1851, 3372, 5384, 3361, 5286
1852, 5339, 3157, 5288, 3138
1853, 5341, 3151, 2171, 3065
1854, 3324, 2192, 3328, 2191
1855, 5326, 3146, 2193, 3054
1856, 3143, 2232, 3152, 3260
1857, 3260, 3356, 5290, 3143
1858, 3452, 3356, 2250, 5372
1859, 5306, 5294, 4082, 4034
1860, 2323, 4360, 4249, 4286
1861, 3845, 5295, 3737, 5342
1862, 3373, 2344, 3359, 2343
1863, 3263, 3155, 3140, 3359
1864, 5380, 5345, 3219, 3307
1865, 3325, 2412, 3326, 2413
1866, 3148, 5324, 3212, 3218
1867, 3141, 2447, 3154, 3262
1868, 3262, 3358, 5300, 3141
1869, 3450, 3358, 2464, 5381
1870, 2538, 4359, 4248, 4284
1871, 5303, 3736, 3844, 3641
1872, 3375, 2557, 3261, 3357
1873, 3261, 3153, 3142, 3357
1874, 3147, 5396, 3217, 2615
1875, 3211, 3323, 3055, 3147
1876, 3058, 3214, 3150, 2637
1877, 2679, 3156, 3139, 3540
1878, 3360, 3139, 3264, 2700
1879, 3360, 3303, 3580, 2701
1880, 2746, 3004, 3117, 5281
1881,   16, 2868, 2862,   17
1882, 2921, 2746, 3048, 2868
1883, 2869, 2823,  168,  169
1884, 2869, 2913, 3003, 2083
1885, 3084, 3003, 2082, 3161
1886, 3292, 3409, 3473, 2105
1887, 3437, 3507, 3625, 5505
1888, 3508, 3416, 3306, 2148
1889, 3537, 2191, 3600, 2190
1890, 5412, 3499, 5457, 2195
1891, 3577, 3421, 2195, 3653
1892, 2249, 3663, 3746, 3919
1893, 3663, 3718, 3554, 5372
1894, 3770, 3777, 3904, 2271
1895, 4189, 3930, 2272, 4247
1896, 4253, 2323, 4286, 2322
1897, 2341, 4184, 4106, 5403
1898, 3837, 5369, 5343, 3797
1899, 3626, 3438, 3509, 3649
1900, 3418, 5402, 3510, 2391
1901, 3539, 2413, 3601, 2414
1902, 3495, 3419, 3318, 3539
1903, 2409, 3576, 3419, 3495
1904, 3747, 3918, 5473, 3664
1905, 3555, 3664, 3719, 5382
1906, 3771, 3778, 3905, 2482
1907, 4188, 3929, 2481, 4246
1908, 4252, 2538, 4284, 2537
1909, 3836, 4289, 4182, 3920
1910, 3836, 3809, 3796, 2560
1911, 3505, 5485, 3308, 3436
1912, 5438, 3319, 5490, 3497
1913, 3316, 3493, 3417, 2636
1914, 3575, 3417, 2635, 3655
1915, 2700, 3264, 3720, 3607
1916, 3293, 2723, 3398, 5418
1917, 2745, 3048, 3085, 3160
1918, 2862, 2745, 2998, 2824
1919,  171,  172, 2850, 2825
1920, 3041, 2850, 2871, 2081
1921, 3070, 3330, 5389, 3223
1922, 3574, 3304, 5389, 2104
1923, 3659, 3733, 3743, 2148
1924, 3788, 3727, 3743, 3870
1925, 3945, 3788, 2168, 4075
1926, 3981, 3738, 3848, 4021
1927, 3811, 5511, 3887, 2229
1928, 3811, 2229, 3949, 3886
1929, 4514, 3829, 3882, 4219
1930, 3904, 4358, 2272, 3930
1931, 2304, 4189, 4247, 4415
1932, 4292, 4255, 4185, 2322
1933, 4106, 4018, 2340, 5403
1934, 3894, 3982, 3817, 2345
1935, 3817, 3851, 3657, 2345
1936, 3873, 3789, 5497, 5424
1937, 3946, 3789, 3873, 5526
1938, 3980, 3739, 3849, 4022
1939, 3739, 3890, 3654, 2409
1940, 3813, 5649, 3950, 3889
1941, 4220, 3828, 3883, 5231
1942, 4356, 2481, 3929, 3905
1943, 2518, 4188, 4246, 4414
1944, 4254, 2537, 4291, 5535
1945, 4105, 4017, 2561, 4182
1946, 3816, 2556, 3893, 3983
1947, 3816, 3852, 3658, 2556
1948, 3728, 3869, 3787, 2614
1949, 3944, 3787, 3869, 2613
1950, 3850, 3979, 3740, 2635
1951, 3812, 3765, 5546, 3655
1952, 2699, 3694, 3629, 3484
1953, 2722, 3408, 3305, 3224
1954, 2745, 3160, 3069, 2998
1955, 2824, 2870,   19,   18
1956, 2871, 2850,  172,  173
1957, 2849, 2872,  174,  175
1958, 2080, 3635, 2849, 2826
1959, 2844, 2873,  178,  179
1960, 3053, 2844, 2848, 2078
1961, 2874, 2848,  180,  181
1962, 2078, 3341, 3251, 3184
1963,  182,  183, 2827, 2911
1964, 2077, 5229, 3257, 3424
1965, 3424, 3257, 3355, 2100
1966, 3693, 2100, 3781, 2121
1967, 3866, 3705, 3769, 2142
1968, 4053, 2163, 4125, 3985
1969, 2184, 4353, 4237, 4274
1970, 4509, 2201, 4546, 4401
1971, 4649, 4598, 4691, 2225
1972, 4786, 4901, 4778, 2224
1973, 5844, 2261, 5000, 5807
1974, 5121, 5096, 5066, 5856
1975, 5141, 5174, 5194, 2298
1976, 5902, 5173, 5147, 5105
1977, 5111, 5836, 5036, 5878
1978, 5136, 5112, 5078, 5850
1979, 4978, 2368, 4935, 2369
1980, 5849, 4960, 4909, 4875
1981, 4909, 2386, 4998, 4959
1982, 5148, 5128, 5090, 5126
1983, 5155, 5873, 5110, 5170
1984, 5029, 5109, 5138, 2458
1985, 5202, 5099, 5138, 2457
1986, 2492, 5182, 5838, 5201
1987, 5140, 5826, 5203, 2512
1988, 5161, 5151, 2532, 5104
1989, 5120, 2567, 5169, 5035
1990, 4955, 4983, 2551, 4976
1991, 4861, 5887, 4776, 5874
1992, 4737, 4674, 4618, 4557
1993, 4497, 4437, 2646, 4241
1994, 4159, 4279, 4241, 4198
1995, 4122, 4045, 3953, 3901
1996, 3967, 3750, 3557, 2694
1997, 2716, 3430, 3384, 5429
1998, 3133, 3188, 3005, 2740
1999,   30, 2859, 2875,   31
2000, 2828, 2740, 3005, 2859
2001, 2828,   29,   28, 2876
2002, 3195, 3250, 3353, 2717
2003, 3692, 3463, 5595, 5507
2004, 3768, 3864, 3700, 2695
2005, 4516, 4054, 2631, 4457
2006, 4279, 4334, 4446, 2645
2007, 5796, 4565, 4825, 5798
2008, 4737, 4781, 4916, 2589
2009, 4861, 4892, 4976, 2551
2010, 4873, 5823, 4955, 5788
2011, 2565, 4956, 5031, 5019
2012, 5039, 2514, 4991, 5079
2013, 5020, 2476, 5038, 4943
2014, 5054, 5020, 5755, 2477
2015, 2459, 4990, 4952, 4885
2016, 4883, 4720, 2441, 5770
2017, 5065, 5001, 2405, 5089
2018, 2418, 4773, 4806, 5116
2019, 4805, 4773, 4690, 4741
2020, 2388, 4790, 4858, 4741
2021, 2369, 4977, 5051, 4978
2022, 2335, 4957, 4908, 5757
2023, 4958, 5756, 2336, 4802
2024, 4992, 5080, 2300, 4944
2025, 5040, 5021, 2277, 5174
2026, 5125, 5792, 5096, 5121
2027, 2245, 5743, 4974, 5234
2028, 4780, 2225, 4827, 4860
2029, 4760, 4649, 2225, 4780
2030, 2185, 4438, 4391, 4242
2031, 4280, 4242, 4161, 2164
2032, 4119, 4041, 3841, 2143
2033, 3701, 2121, 3885, 3808
2034, 2100, 3693, 3464, 3352
2035, 2077, 3424, 3251, 3341
2036, 3352, 2101, 3184, 3251
2037, 3257, 3189, 5337, 3355
2038, 2829, 2827,  183,  184
2039, 2829, 2910, 3012, 2076
2040, 3119, 3012, 5271, 5297
2041, 3393, 3457, 3280, 2098
2042, 3970, 3769, 3865, 4047
2043, 4157, 5565, 4196, 2162
2044, 4588, 2201, 4509, 4545
2045, 4759, 4715, 4613, 2202
2046, 2243, 4786, 4828, 4999
2047, 5879, 4999, 5069, 5058
2048, 5190, 5177, 5143, 5829
2049, 5129, 5085, 5911, 5064
2050, 5092, 2350, 5118, 5062
2051, 2368, 5868, 5131, 5187
2052, 5152, 5156, 5906, 5883
2053, 5919, 5034, 5077, 5917
2054, 5122, 5097, 5918, 2421
2055, 2438, 5180, 5157, 5113
2056, 5193, 5159, 5180, 2438
2057, 5186, 5195, 5202, 2457
2058, 2474, 5142, 5192, 5175
2059, 2531, 5896, 5144, 5913
2060, 5061, 5897, 5094, 5119
2061, 4929, 2550, 4984, 5015
2062, 2588, 4809, 4784, 5812
2063, 4351, 2646, 4437, 4496
2064, 4155, 2629, 4198, 4297
2065, 3907, 2671, 3953, 4058
2066, 2693, 3670, 3583, 5495
2067, 5429, 3384, 5462, 3282
2068, 2738, 3015, 3120, 3173
2069, 2918,   32,   31, 2875
2070, 2738, 2830, 2918, 3015
2071, 2847, 2877,  186,  187
2072, 2847, 2832, 3006, 2075
2073, 3006, 2074, 5296, 3088
2074, 3406, 3471, 3290, 2097
2075, 3862, 3689, 2140, 3932
2076, 2161, 4116, 4035, 4209
2077, 5643, 4716, 5646, 5647
2078, 4578, 4500, 2203, 4609
2079, 4734, 4669, 2222, 4862
2080, 5238, 5854, 4982, 5882
2081, 5050, 2259, 5084, 5012
2082, 2280, 5008, 5821, 4995
2083, 2297, 5865, 5205, 4971
2084, 4967, 5045, 5864, 4915
2085, 2333, 4985, 5013, 5062
2086, 5901, 4986, 4933, 2352
2087, 5181, 5898, 5188, 5184
2088, 5915, 5154, 5162, 5184
2089, 5150, 5171, 5179, 5910
2090, 5028, 5153, 5082, 2437
2091, 5022, 5055, 5135, 2494
2092, 5890, 5056, 5904, 5022
2093, 5041, 2529, 4993, 5892
2094, 4987, 4951, 5886, 2549
2095, 4893, 2587, 4863, 4950
2096, 4433, 4389, 2647, 4351
2097, 4230, 4172, 2628, 4155
2098, 4059, 2670, 3993, 4128
2099, 3717, 3603, 3472, 2692
2100, 5430, 5357, 2715, 3392
2101, 3089, 3162, 3007, 2738
2102,   33, 2830, 2831,   34
2103, 2830, 2738, 3007, 2831
2104,  188,  189, 2878, 2832
2105, 2878, 2909, 3043, 2074
2106, 2843, 2879,  193,  194
2107, 3045, 2843, 2907, 2071
2108, 2834, 2880,  196,  197
2109, 2834, 2070, 2999, 2880
2110, 2834, 2906, 3011, 2070
2111, 3121, 3011, 2069, 3190
2112, 3459, 3281, 3383, 2113
2113, 3582, 3669, 2135, 3803
2114, 2157, 3992, 4056, 5623
2115, 4296, 4156, 4197, 2177
2116, 2178, 4494, 4432, 4388
2117, 2218, 4201, 4164, 4200
2118, 4144, 2237, 4079, 3973
2119, 5494, 3975, 2254, 3923
2120, 3840, 5482, 3914, 4078
2121, 3914, 3959, 5608, 4087
2122, 3915, 3823, 2327, 3815
2123, 3815, 3662, 3892, 2328
2124, 3855, 4024, 3978, 5536
2125, 3713, 3880, 3802, 2362
2126, 5513, 3966, 3735, 3707
2127, 3941, 4042, 3734, 2397
2128, 3744, 5477, 2450, 3660
2129, 3854, 3814, 2498, 5550
2130, 3926, 3867, 2468, 4020
2131, 4020, 4094, 5522, 2469
2132, 4107, 5567, 2525, 5542
2133, 4235, 2574, 4264, 5209
2134, 4335, 2582, 4483, 4404
2135, 5572, 2601, 4450, 4482
2136, 2652, 4513, 4510, 4429
2137, 4385, 4330, 4147, 2623
2138, 3998, 5628, 4084, 4147
2139, 3567, 3793, 3697, 5491
2140, 3390, 2687, 3567, 5481
2141, 3238, 3176, 5362, 3348
2142,   45, 2855, 2881,   46
2143, 2732, 3342, 3238, 3203
2144, 2856, 2733, 3342, 2882
2145, 2856, 2895, 3050, 2733
2146, 3090, 3050, 2734, 3165
2147, 5514, 5480, 5479, 2688
2148, 2666, 5652, 5612, 5611
2149, 2624, 5725, 5707, 5706
2150, 4660, 4575, 5635, 5634
2151, 5696, 4576, 4499, 4538
2152, 4628, 4608, 4740, 4581
2153, 4547, 4627, 5662, 4657
2154, 5621, 4647, 5666, 2573
2155, 2525, 5567, 4535, 4492
2156, 4281, 2507, 4212, 4245
2157, 5577, 4418, 5522, 4212
2158, 4181, 4103, 4005, 5561
2159, 4180, 5601, 4233, 4603
2160, 4187, 4511, 5691, 2434
2161, 4195, 4150, 5670, 4153
2162, 4088, 4091, 4193, 2425
2163, 4124, 3965, 4088, 2425
2164, 2363, 4142, 4077, 5660
2165, 4029, 4218, 5216, 5637
2166, 3991, 4066, 4137, 4073
2167, 4208, 4145, 5552, 4244
2168, 4087, 5631, 4194, 2292
2169, 5579, 4306, 5532, 4141
2170, 4682, 4305, 5580, 2282
2171, 4290, 4309, 4425, 2238
2172, 4361, 4655, 5644, 4251
2173, 4655, 2219, 4695, 4658
2174, 2157, 4231, 4173, 4127
2175, 3992, 4057, 5512, 2136
2176, 3716, 5466, 5414, 2114
2177, 3391, 3470, 2093, 5236
2178, 2071, 2999, 3091, 3164
2179, 3091, 2999, 2070, 3175
2180, 2070, 3011, 3121, 3175
2181,  198,  199, 2835, 2906
2182, 2835, 2905, 3010, 2069
2183, 3135, 3010, 2068, 3197
2184, 3383, 3431, 3443, 2113
2185, 3556, 5465, 3858, 3749
2186, 4044, 2156, 3908, 3952
2187, 2177, 4197, 4240, 4434
2188, 4336, 4319, 2208, 5693
2189, 5610, 2217, 4190, 4236
2190, 3818, 2236, 3951, 2235
2191, 3895, 2236, 3818, 3706
2192, 3564, 3780, 3722, 2253
2193, 2290, 3632, 3695, 3414
2194, 3632, 3525, 3696, 2291
2195, 2309, 3562, 3673, 3823
2196, 3490, 5397, 3502, 2326
2197, 3503, 2357, 3427, 3364
2198, 3595, 3272, 3531, 2379
2199, 3596, 3531, 2378, 3656
2200, 3594, 3652, 2395, 3527
2201, 3274, 3528, 5476, 3593
2202, 3853, 3426, 2450, 5477
2203, 3426, 2449, 3501, 2450
2204, 3960, 3943, 3785, 5391
2205, 2504, 3794, 3877, 3752
2206, 3878, 3794, 3724, 3792
2207, 2523, 3874, 3792, 3724
2208, 4123, 4328, 4048, 5411
2209, 4404, 4276, 2581, 4335
2210, 4149, 4086, 2600, 4275
2211, 4207, 4372, 4316, 2600
2212, 4381, 4300, 2622, 4330
2213, 2622, 4300, 4085, 5627
2214, 3726, 2686, 3800, 3879
2215, 3514, 3362, 2709, 3585
2216, 2731, 5266, 3134, 3192
2217, 2881, 3008, 5266, 2883
2218, 2731, 2854, 2883, 5266
2219, 2836, 2884,  201,  202
2220,  202,  203, 2904, 2836
2221, 3197, 3247, 3351, 2091
2222, 3691, 3566, 3699, 2112
2223, 3767, 3863, 3699, 2111
2224, 2154, 4104, 4055, 3779
2225, 3906, 3954, 2175, 3832
2226, 5591, 5590, 4390, 4434
2227, 3999, 2216, 5610, 4299
2228, 2216, 4060, 4043, 3896
2229, 3435, 3504, 5392, 3624
2230, 3488, 3313, 2285, 3564
2231, 3414, 2285, 3313, 3207
2232, 3170, 5351, 3277, 2289
2233, 3271, 2307, 3365, 3440
2234, 3490, 3415, 3314, 3209
2235, 3031, 2360, 3125, 3200
2236, 3026, 2377, 3124, 3129
2237, 5385, 3652, 3594, 3731
2238, 3025, 2430, 3130, 3123
2239, 3312, 2501, 5387, 3377
2240, 5310, 2467, 3960, 3859
2241, 5278, 3561, 3083, 2981
2242, 3526, 3267, 3592, 2504
2243, 3606, 2575, 3710, 3548
2244, 3807, 2542, 3963, 3917
2245, 3881, 5388, 2541, 3805
2246, 3948, 5400, 4086, 2580
2247, 2655, 5487, 4038, 3686
2248, 5616, 4039, 3939, 3835
2249, 4146, 4062, 3935, 5569
2250, 3774, 3715, 3598, 2684
2251, 3298, 5363, 3518, 3534
2252, 3128, 3182, 3009, 2731
2253, 2854, 2731, 3009, 2885
2254, 2730, 2853, 2885, 3009
2255, 2068, 3343, 3247, 3197
2256, 2904, 5269, 3343, 2836
2257, 2838, 2886,  206,  207
2258,  207,  208, 2902, 2838
2259, 2846, 2887,  209,  210
2260, 2888, 2846,  210,  211
2261, 2846, 2888, 3042, 2064
2262, 2845, 2889,  212,  213
2263, 2063, 5265, 2889, 2845
2264, 3087, 5262, 2062, 3096
2265, 2977,  224,  225, 2923
2266,  227, 2129, 2979,  226
2267,  228, 2936, 2129,  227
2268, 3254, 3186, 3310, 2152
2269, 2211, 3411, 3276, 3193
2270, 3671, 3801, 3560, 2211
2271, 3704, 3637, 3445, 3560
2272, 3961, 3916, 3702, 2153
2273, 3385, 3283, 3254, 2152
2274, 3354, 3412, 2130, 3104
2275, 3177, 2107, 3092, 2108
2276, 2977, 3241, 2984, 2978
2277, 5262, 5259, 5255, 2062
2278, 2967,  221,  222, 2085
2279, 2967, 2062, 5261, 2930
2280, 2978,  223,  224, 2977
2281, 2864, 2863,  216,  217
2282, 5258, 5241, 2930, 5261
2283,  218, 2864,  217,    7
2284, 2987, 2936, 2956, 2151
2285, 2151, 2956, 2966, 3253
2286,  233, 2975, 3446,  232
2287, 3193, 3276, 3035, 3132
2288, 5416, 5353, 3329, 4129
2289, 2172,  231,  232, 3446
2290, 2942, 2212, 3551, 2975
2291,  235, 2971, 2942,  234
2292, 3194, 3132, 2213, 3019
2293, 2234, 5206, 3369, 5460
2294, 5454, 3222, 5206, 2234
2295, 2212, 2942, 2971, 3035
2296, 3022, 3066, 2926, 2976
2297, 3022, 3033, 5330, 2233
2298, 2954,  243,  244, 2288
2299, 2982, 2960, 2927, 3082
2300, 5273, 2287, 2954, 2288
2301,  242, 3018, 2963,  241
2302, 2926, 3066, 3194, 3019
2303, 3018, 2954, 2287, 3181
2304, 3021, 3082, 2927, 2961
2305,  249, 2932, 2968,  248
2306, 2307, 3021, 3024, 3365
2307, 3441, 3314, 2325, 3429
2308, 2955, 2939, 3031, 2359
2309,  255, 2945, 2949,  254
2310,  257, 2943, 2944,    8
2311, 2945, 2922, 3023, 2377
2312, 2944, 2943, 3028, 2429
2313, 2958, 2948, 3025, 2394
2314,  260, 2947, 2948,  259
2315,  264, 2941, 2951,  263
2316, 2934, 2951, 3034, 2448
2317, 3030, 3029, 5276, 2466
2318, 2521, 2986, 2950, 5237
2319, 2577, 3278, 3180, 2972
2320, 5274, 3278, 2577, 3040
2321, 2598, 3423, 3321, 3204
2322, 2655, 3686, 3618, 3798
2323, 2656, 3685, 3618, 3544
2324, 2619, 4154, 3964, 4030
2325, 2707, 3389, 3287, 3246
2326, 2729, 3001, 3101, 3166
2327,   52, 2891, 2852,   53
2328,   50, 2853, 2892,   51
2329, 2729, 2891, 2892, 3001
2330,  267, 2937, 2962,  266
2331,  268, 2502, 2937,  267
2332,  271, 5253, 5237,  270
2333, 2950,  269,  270, 5237
2334, 5237, 5253, 2972, 2521
2335, 2940, 2959, 3040, 2577
2336,  274, 2952, 2959,  273
2337, 2578, 3191, 3204, 3039
2338, 3366, 3275, 3199, 3269
2339, 3456, 3516, 3279, 2618
2340, 3545, 5506, 2662, 3563
2341, 3721, 2661, 3604, 5500
2342, 2706, 3402, 5448, 3297
2343, 2728, 3046, 3079, 3337
2344,   53, 2852, 2893,   54
2345, 2891,   52,   51, 2892
2346, 3039, 3036, 2933, 2578
2347, 5256, 5254, 2578, 2933
2348, 2973, 2964,  279,  280
2349, 3068, 3017, 2658, 2985
2350, 2964, 2973, 3067, 2597
2351, 3017, 2973,  280,  281
2352, 2965, 2658,  282,  283
2353, 2617, 2988, 3105, 3259
2354, 3068, 2985, 3198, 2657
2355, 2957, 2965,  283,  284
2356,  284,  285, 2970, 2957
2357, 3378, 3543, 2661, 5420
2358, 2660, 3105, 2988, 3037
2359, 3037, 3266, 3201, 2660
2360, 3242, 3368, 3178, 2680
2361, 3608, 3425, 2703, 3071
2362, 2915,   58,   57, 2894
2363, 2840, 2727, 3014, 2894
2364,   56, 2840, 2894,   57
2365, 2727, 2840, 2916, 3938
2366, 5308, 5309, 3608, 3071
2367, 3709, 2704, 3608, 5309
2368, 3422, 2704, 3748, 5328
2369, 2866,   61,   60, 2914
2370, 3020, 2867, 2865, 3073
2371,  290,  291, 2702, 2928
2372, 2928, 2974,  289,  290
2373, 2924, 2980,  287,  288
2374,  285,  286, 2659, 2970
2375, 2969, 2925,  292,  293
2376, 2925, 2969, 5260, 2725
2377, 3086, 3016, 2726, 5275
2378, 2983, 3097, 3086, 3136
2379, 2974, 2928, 2983, 3242
2380,   61, 2866, 2865,   62
2381, 2725, 5260, 2914, 3016
2382,   42, 2895, 2856,   43
2383,   40, 2857, 2896,   41
2384,   39, 2897, 2857,   40
2385,   37, 2858, 2898,   38
2386, 2858, 2899, 3044, 2736
2387,   36, 2899, 2858,   37
2388, 2736, 3044, 3075, 3434
2389, 3075, 3044, 2737, 5319
2390, 3333, 3302, 2713, 5360
2391, 5475, 5443, 3644, 3791
2392, 4132, 4070, 2666, 3759
2393, 5516, 2666, 5611, 3687
2394, 3759, 2666, 5516, 3826
2395, 3572, 3299, 5361, 2712
2396, 3521, 3512, 3434, 5360
2397, 3791, 3589, 2690, 5523
2398, 3644, 5427, 3589, 3791
2399, 2740, 3344, 3250, 3195
2400, 3250, 3344, 2741, 5313
2401,   24, 2900, 2860,   25
2402,   22, 2861, 2901,   23
2403, 2920,   20,   19, 2870
2404, 5268, 5267, 3533, 5285
2405, 3590, 3533, 3439, 3524
2406, 3439, 2744, 5282, 2721
2407, 3667, 3591, 3730, 2697
2408, 2696, 3476, 3612, 3681
2409, 2674, 5604, 3860, 3681
2410, 3757, 2696, 3681, 3860
2411, 3400, 3462, 3284, 5433
2412, 3080, 3047, 2743, 3338
2413, 3476, 3294, 5404, 5444
2414, 5444, 5404, 3568, 5464
2415, 2776, 2778, 3187, 2747
2416, 2775, 2779, 3580, 2724
2417, 3540, 2780, 2773, 2679
2418, 3106, 2996, 2781, 2772
2419, 2772, 2782, 2989, 3106
2420, 3107, 2990, 2784, 2770
2421, 3396, 3108, 2769, 2786
2422, 2559, 5225, 3736, 5303
2423, 2539, 4480, 4398, 4525
2424, 2520, 4210, 4081, 5302
2425, 2483, 3846, 3821, 3989
2426, 2763, 2792, 5221, 2484
2427, 2793, 2761, 3109, 3541
2428, 3110, 2995, 2794, 2760
2429, 2760, 2795, 2991, 3110
2430, 3381, 2796, 2759, 3486
2431, 3111, 2992, 2797, 2758
2432, 3395, 3112, 2757, 2799
2433, 2342, 5226, 3737, 5295
2434, 2324, 4481, 4397, 4524
2435, 2306, 4211, 4082, 5294
2436, 2270, 3847, 3822, 3988
2437, 2751, 2805, 5220, 2269
2438, 2806, 2749, 3113, 3542
2439, 3114, 2994, 2807, 2748
2440, 2748, 2808, 2993, 3114
2441, 2814, 3487, 3380, 2815
2442, 3115, 2997, 2816, 2813
2443, 3394, 3116, 2812, 2818
2444, 2106, 3725, 3546, 5284
2445, 5241, 5258, 2863, 2864
2446, 3087, 3137, 3049, 5262
2447, 5265, 3268, 3072, 3042
2448, 2064, 5280, 3432, 3519
2449, 3078, 3000, 2065, 3336
2450, 3051, 2066, 5292, 3100
2451, 2067, 3051, 3100, 5293
2452, 2837, 2903, 3051, 2067
2453, 3511, 3587, 3432, 5314
2454, 2887, 2846, 2064, 3519
2455, 2064, 3042, 3072, 5280
2456, 2066, 3000, 3078, 5292
2457, 2065, 3000, 2838, 2902
2458, 3351, 3247, 3183, 5323
2459, 2069, 3010, 3135, 3190
2460, 2072, 3045, 3077, 3335
2461, 3643, 3588, 5423, 3790
2462, 5390, 3481, 2118, 3406
2463, 3573, 3301, 2096, 3617
2464, 3074, 3043, 2073, 3332
2465, 2833, 2908, 3529, 2073
2466, 3529, 3433, 3513, 2073
2467, 2072, 3335, 3433, 3529
2468, 2074, 3043, 3074, 5296
2469, 2073, 3043, 2909, 2833
2470, 2075, 3006, 3088, 3174
2471, 2076, 3012, 3119, 3189
2472, 2079, 3053, 3103, 3168
2473, 3295, 3569, 3232, 2102
2474, 3912, 4080, 5587, 3913
2475, 3574, 3680, 2125, 5428
2476, 3633, 2103, 3668, 3680
2477, 3698, 3633, 3535, 3635
2478, 2826, 2912, 3013, 2080
2479, 2080, 3013, 3081, 3339
2480, 3081, 3013, 2079, 3168
2481, 5347, 3535, 3633, 2104
2482, 2082, 3041, 3070, 3161
2483, 3003, 3084, 5307, 2083
2484, 3546, 3172, 3345, 5284
2485, 3291, 3177, 3674, 5349
2486, 3511, 5314, 3579, 5352
2487, 3296, 2088, 5315, 3570
2488, 3403, 3466, 3286, 2089
2489, 5364, 2090, 3245, 5322
2490, 3665, 5352, 3723, 3599
2491, 3403, 3229, 3296, 5399
2492, 3566, 3388, 2111, 3699
2493, 3431, 3383, 2092, 3371
2494, 5421, 2093, 3470, 5394
2495, 3391, 3281, 3459, 2114
2496, 3077, 3045, 2071, 3164
2497, 3300, 5366, 3228, 5332
2498, 2117, 3643, 3790, 3898
2499, 4115, 4228, 4209, 4035
2500, 3764, 2140, 3689, 3622
2501, 3290, 5367, 3236, 3346
2502, 3280, 5368, 3255, 3453
2503, 3611, 2122, 3464, 3693
2504, 5410, 2120, 3565, 3781
2505, 3103, 3053, 2078, 3184
2506, 5378, 5210, 3249, 3285
2507, 3831, 3477, 3613, 5488
2508, 5585, 4080, 5530, 3956
2509, 3912, 3831, 5530, 4080
2510, 2105, 3233, 3454, 3292
2511, 3092, 2979, 2129, 3038
2512, 3536, 3619, 2130, 3412
2513, 2936,  228,  229, 2956
2514, 3599, 3536, 3412, 3515
2515, 3586, 3515, 2131, 3675
2516, 2132, 3842, 3782, 3683
2517, 3758, 2110, 3683, 3782
2518, 3515, 3586, 3614, 2109
2519, 2113, 3443, 3556, 3669
2520, 2136, 5512, 5466, 3716
2521, 3716, 3582, 3803, 2136
2522, 3405, 3480, 3300, 2094
2523, 3480, 3621, 2116, 5422
2524, 2139, 3911, 3928, 4317
2525, 2161, 4209, 4229, 4270
2526, 3520, 5333, 3588, 3643
2527, 3762, 2118, 3689, 3862
2528, 3387, 3464, 2122, 3285
2529, 2123, 5379, 3597, 3682
2530, 3755, 3924, 2146, 5488
2531, 3945, 4075, 5578, 4013
2532, 4075, 3956, 4139, 5578
2533, 3401, 2123, 3295, 2102
2534, 3483, 3628, 2126, 3409
2535, 3265, 5339, 5338, 2127
2536, 2987, 2151, 3104, 2130
2537, 3283, 3460, 3675, 2131
2538, 3460, 3634, 2132, 3675
2539, 3779, 3634, 3702, 2154
2540, 2134, 5589, 3987, 4178
2541, 2135, 3749, 3900, 3952
2542, 3992, 2157, 4127, 4057
2543, 4056, 3992, 3908, 2156
2544, 3760, 5463, 2137, 4111
2545, 4111, 5553, 2138, 3760
2546, 4344, 2159, 4266, 4410
2547, 4444, 2182, 4348, 5667
2548, 4348, 2182, 4579, 4270
2549, 3932, 2141, 5544, 3862
2550, 3970, 4046, 2142, 3769
2551, 4041, 2165, 3940, 3841
2552, 4125, 5581, 4175, 3985
2553, 3714, 2144, 3772, 3597
2554, 2165, 4120, 4040, 3940
2555, 5555, 4295, 4204, 2167
2556, 4314, 5554, 4167, 2188
2557, 4167, 4013, 5578, 4204
2558, 3613, 5449, 3755, 5488
2559, 3743, 3733, 2147, 3870
2560, 2149, 3437, 3306, 3221
2561, 5289, 5288, 3157, 5340
2562,  226, 2979, 2923,  225
2563, 2174, 3631, 3605, 3442
2564, 3605, 3631, 5455, 3461
2565, 4599, 4615, 2175, 3954
2566, 4158, 2156, 4044, 2155
2567, 4231, 2178, 4272, 4173
2568, 4231, 5623, 4296, 2178
2569, 4032, 5553, 4215, 2159
2570, 2159, 4215, 4223, 4266
2571, 4472, 5698, 5654, 4410
2572, 4818, 4718, 4846, 5781
2573, 4500, 5701, 5753, 2203
2574, 4112, 4032, 2159, 4344
2575, 4157, 4191, 2163, 4053
2576, 4242, 2186, 4199, 4161
2577, 5592, 2163, 4191, 4237
2578, 4120, 5547, 4143, 4040
2579, 4174, 2166, 5547, 4120
2580, 4370, 2188, 5606, 4304
2581, 2196, 4063, 3996, 3887
2582, 4468, 4025, 4314, 4431
2583, 3976, 3977, 3924, 3755
2584, 3871, 2169, 3727, 3788
2585, 3315, 2170, 3416, 3491
2586, 3059, 2171, 3151, 3215
2587, 2172, 3410, 3253, 2966
2588, 3832, 5484, 4445, 3906
2589, 4434, 4240, 2176, 5591
2590, 4448, 4388, 4432, 4503
2591, 4343, 2180, 4266, 4223
2592, 4448, 4504, 2179, 4388
2593, 4652, 2204, 4570, 5717
2594, 4913, 5810, 4841, 4965
2595, 4818, 4669, 5753, 4718
2596, 4410, 4266, 2180, 4472
2597, 5647, 5690, 4540, 5643
2598, 5746, 4498, 4391, 4438
2599, 4401, 4546, 4438, 2185
2600, 4298, 4174, 4199, 2186
2601, 4451, 5669, 4340, 4506
2602, 4422, 2228, 4488, 4765
2603, 4002, 5584, 4071, 4308
2604, 4135, 3996, 4063, 2197
2605, 4386, 4258, 4295, 5556
2606, 3848, 3738, 5457, 3499
2607, 3320, 3537, 3499, 5412
2608, 3210, 5326, 3324, 3320
2609, 3060, 2193, 3146, 3216
2610, 3498, 5371, 3421, 3577
2611, 5511, 2195, 5457, 3738
2612, 4643, 2226, 4685, 4600
2613, 4422, 4375, 5673, 2228
2614, 4327, 5598, 5551, 2248
2615, 4097, 4308, 5613, 4327
2616, 4420, 4304, 5668, 2187
2617, 4686, 4762, 4643, 2199
2618, 4646, 4691, 4598, 2201
2619, 4588, 4613, 4646, 2201
2620, 4609, 4787, 5712, 4578
2621, 2206, 4695, 4744, 4642
2622, 2220, 4856, 4887, 4939
2623, 4988, 4881, 4903, 4989
2624, 5830, 5841, 4913, 2240
2625, 5717, 4526, 2205, 4652
2626, 2206, 4504, 4448, 5724
2627, 4227, 4190, 4201, 4269
2628, 2208, 4236, 4190, 4227
2629, 4061, 3884, 5483, 3839
2630, 3276, 3311, 2212, 3035
2631, 2213, 3132, 3035, 2971
2632, 4060, 2216, 3999, 2215
2633, 4290, 2238, 4486, 4361
2634, 4079, 4200, 4164, 4007
2635, 4747, 4701, 2205, 4642
2636, 4486, 4512, 4792, 2219
2637, 2239, 4779, 4838, 4887
2638, 2280, 4995, 4890, 4859
2639, 2258, 4903, 4881, 4811
2640, 2204, 4652, 5738, 4846
2641, 5817, 5782, 4734, 4862
2642, 2224, 4715, 4731, 4786
2643, 4827, 2244, 4930, 4860
2644, 4600, 4685, 2227, 4582
2645, 4765, 4820, 4789, 4422
2646, 2265, 4758, 4714, 4634
2647, 2266, 4626, 4531, 4400
2648, 5598, 2247, 4378, 5551
2649, 4765, 4488, 4582, 2227
2650, 2230, 3811, 3886, 3919
2651, 3746, 3663, 5372, 2250
2652, 3152, 2232, 3060, 3216
2653,  238, 2926, 3019,  237
2654, 4043, 5454, 4324, 5518
2655, 4380, 2256, 4425, 4309
2656, 4512, 4486, 2238, 4559
2657, 4559, 2239, 4856, 4512
2658, 4694, 4743, 4839, 2257
2659, 4859, 4722, 4889, 4924
2660, 4878, 4859, 4890, 4938
2661, 5882, 5012, 5133, 5852
2662, 4968, 2243, 4999, 5879
2663, 2244, 5801, 5775, 4930
2664, 5027, 5775, 5801, 5807
2665, 4820, 5223, 2246, 4789
2666, 5246, 2246, 5223, 5249
2667, 4396, 2273, 4475, 4530
2668, 5602, 4589, 2274, 4475
2669, 4375, 4487, 5607, 2247
2670, 3663, 3882, 3829, 3718
2671, 2251, 5291, 3376, 5220
2672, 2061, 3033, 2929, 2963
2673, 3094, 5330, 3033, 2061
2674, 3244, 3273, 3181, 3099
2675, 2286, 3504, 3413, 3244
2676, 3708, 3780, 3564, 2285
2677, 4305, 4371, 2283, 5532
2678, 5494, 5493, 4051, 2255
2679, 4681, 4619, 2256, 4636
2680, 4681, 4636, 5632, 5686
2681, 4708, 5222, 4534, 4554
2682, 4752, 4632, 4679, 2314
2683, 4889, 4707, 5828, 2296
2684, 4811, 4779, 5709, 2257
2685, 5189, 4995, 5821, 5822
2686, 5058, 5071, 2261, 5879
2687, 5033, 5792, 5125, 5087
2688, 4954, 4906, 5638, 4871
2689, 2264, 4906, 4953, 4757
2690, 4596, 2274, 4637, 4688
2691, 2303, 4567, 4521, 4363
2692, 4714, 4758, 4849, 4851
2693, 4477, 4358, 2267, 4514
2694, 3711, 2269, 3549, 2268
2695, 2271, 3904, 3930, 4034
2696, 2301, 4897, 4865, 4725
2697, 5653, 4585, 5658, 2320
2698, 2339, 4262, 5227, 4232
2699, 4521, 4466, 4439, 2321
2700, 4637, 4634, 4757, 2275
2701, 2263, 4997, 4906, 4954
2702, 4992, 5021, 5040, 5080
2703, 5194, 5177, 5190, 5199
2704, 5149, 2278, 5880, 5071
2705, 4981, 4924, 4971, 5205
2706, 4656, 5630, 4491, 2281
2707, 2295, 4617, 4595, 4632
2708, 4654, 4692, 4857, 5803
2709, 4632, 4752, 4707, 2295
2710, 2281, 4743, 4694, 4656
2711, 5632, 2282, 4656, 4694
2712, 5580, 4305, 5532, 4306
2713, 5243, 3840, 4078, 4141
2714, 3632, 2291, 3766, 3695
2715, 3277, 5351, 3367, 2290
2716, 2292, 4194, 4152, 5579
2717, 3806, 3959, 3914, 5482
2718, 5630, 5580, 4306, 4379
2719, 2293, 4490, 4424, 5685
2720, 5740, 5739, 4542, 5777
2721, 4742, 4867, 5861, 4692
2722, 4857, 4692, 2332, 4888
2723, 2315, 5067, 4967, 5911
2724, 5085, 5129, 2316, 5907
2725, 2317, 5835, 5105, 5147
2726, 5835, 5791, 5080, 5105
2727, 4865, 4897, 4927, 2300
2728, 4232, 4179, 5527, 4004
2729, 5227, 4262, 4439, 4461
2730, 5472, 4363, 4255, 4292
2731, 4217, 2305, 4114, 5442
2732, 4249, 4287, 5306, 2305
2733, 3455, 3673, 3562, 2308
2734, 5552, 4145, 4083, 3915
2735, 3897, 3823, 3915, 4083
2736, 2312, 4409, 4265, 4341
2737, 4341, 4265, 4221, 4408
2738, 5754, 4580, 4449, 2330
2739, 5840, 4785, 4729, 5837
2740, 4867, 4842, 4729, 2352
2741, 2312, 4505, 4493, 4409
2742, 4888, 4966, 4915, 5864
2743, 5129, 5064, 5088, 5111
2744, 5018, 5757, 5756, 5032
2745, 5036, 5794, 5018, 2317
2746, 2319, 4764, 4709, 4640
2747, 4453, 2347, 4544, 4508
2748, 5527, 4179, 4544, 2347
2749, 4585, 4631, 4703, 2319
2750, 4185, 4018, 4106, 2322
2751, 4106, 4184, 4253, 2322
2752, 2324, 4524, 3737, 5226
2753, 3578, 3427, 2357, 5486
2754, 3745, 3892, 3662, 5486
2755, 2311, 4208, 4221, 4265
2756, 4318, 2354, 4421, 4373
2757, 4650, 4517, 2354, 4561
2758, 4810, 5191, 4777, 2365
2759, 5875, 4777, 5191, 2366
2760, 4562, 2331, 4580, 5754
2761, 4985, 2333, 5895, 2332
2762, 2334, 5884, 5115, 5850
2763, 2349, 4996, 4874, 4957
2764, 5112, 2335, 5794, 5078
2765, 4802, 4709, 4764, 2318
2766, 4770, 4803, 2337, 4709
2767, 4453, 4332, 4310, 2347
2768, 3990, 5562, 4068, 4140
2769, 2372, 4131, 4310, 4332
2770, 4587, 5609, 4602, 2337
2771, 3509, 3438, 2375, 3263
2772, 4662, 4622, 5716, 2371
2773, 2390, 4365, 4294, 4257
2774, 4011, 5517, 4076, 4203
2775, 4453, 4508, 2348, 4478
2776, 4834, 4770, 2336, 4908
2777, 4975, 4996, 4931, 4823
2778, 5072, 5132, 5092, 5059
2779, 5014, 5059, 4986, 5901
2780, 4321, 4427, 4250, 5726
2781, 5802, 4667, 2383, 4837
2782, 2384, 4900, 4921, 5245
2783, 2354, 4517, 4458, 4421
2784, 2355, 4318, 4373, 5212
2785, 4218, 4029, 5660, 4077
2786, 3745, 5536, 3978, 2356
2787, 3272, 3595, 3532, 2361
2788, 4077, 4142, 4321, 5726
2789, 3880, 3713, 3795, 2380
2790, 4250, 2355, 5216, 5726
2791, 4733, 4606, 4712, 2423
2792, 5016, 2423, 5858, 5888
2793, 4921, 4969, 5016, 5245
2794, 5160, 5908, 5130, 5899
2795, 4875, 2387, 4858, 5820
2796, 4568, 4662, 2370, 4829
2797, 4568, 5750, 4622, 4662
2798, 2415, 4166, 4313, 4026
2799, 4166, 4011, 4203, 2416
2800, 4332, 4453, 4478, 4402
2801, 5424, 5497, 5467, 2374
2802, 2374, 5395, 3438, 3626
2803, 5299, 5298, 5344, 3219
2804,  252, 2939, 2955,  251
2805, 3023, 2429, 3126, 3122
2806, 3531, 3596, 3707, 2379
2807, 3795, 3735, 3922, 2380
2808, 4382, 2382, 4427, 4321
2809, 4382, 4426, 4591, 2382
2810, 4754, 2423, 4712, 2424
2811, 5876, 4936, 4980, 5007
2812, 5914, 5053, 5900, 5068
2813, 4427, 5802, 4732, 2364
2814, 2386, 5077, 5034, 4998
2815, 4959, 2387, 4875, 4909
2816, 5751, 5750, 4568, 4829
2817, 2388, 4648, 4522, 5751
2818, 2416, 4303, 4369, 4430
2819, 3997, 2408, 4065, 4136
2820, 4026, 4313, 4467, 4065
2821, 4441, 4294, 4365, 5705
2822, 3872, 2391, 5497, 3789
2823, 3317, 2392, 5402, 3418
2824, 3057, 2393, 3149, 3213
2825, 2953, 2949, 3026, 2360
2826, 2394, 3025, 3123, 3127
2827, 3527, 3274, 3593, 2396
2828, 4042, 3941, 2426, 3966
2829, 4150, 2398, 4193, 4091
2830, 5636, 4195, 4153, 4028
2831, 3820, 3962, 3843, 2396
2832, 4206, 4226, 4268, 2624
2833, 4206, 4070, 4132, 4225
2834, 4392, 5524, 5573, 5574
2835, 4031, 2668, 4109, 4214
2836, 5251, 4349, 2648, 4346
2837, 4346, 4683, 4267, 5737
2838, 4502, 2648, 4447, 2606
2839, 4571, 2605, 5774, 2604
2840, 4719, 2583, 4798, 4767
2841, 4798, 5722, 4844, 4767
2842, 5696, 5733, 5723, 2603
2843, 4411, 5718, 2649, 4473
2844, 2649, 4527, 5784, 4473
2845, 2605, 4571, 5784, 5842
2846, 4877, 4746, 2436, 4936
2847, 5005, 4670, 2454, 4973
2848, 4853, 4843, 4671, 4736
2849, 4711, 2472, 4736, 5749
2850, 4553, 4616, 4672, 4753
2851, 4673, 5729, 4793, 4772
2852, 2527, 4847, 4793, 5729
2853, 4962, 4910, 5789, 2547
2854, 4911, 4964, 2585, 4821
2855, 4651, 4751, 4706, 5774
2856, 4816, 5806, 5847, 4819
2857, 5790, 4830, 4852, 4795
2858, 4382, 2381, 4124, 4426
2859, 4926, 4973, 2454, 4884
2860, 4926, 4884, 4972, 2455
2861, 4854, 4886, 2472, 5766
2862, 5816, 4836, 4774, 4807
2863, 2529, 4896, 4864, 4925
2864, 4895, 4864, 5799, 2528
2865, 5083, 2548, 5049, 5010
2866, 5870, 5866, 2548, 5083
2867, 5806, 4816, 4702, 4651
2868, 5047, 5113, 5150, 5910
2869, 2402, 5164, 5139, 5171
2870, 5122, 5126, 2420, 5097
2871, 4773, 2419, 5137, 4806
2872, 5681, 2631, 4054, 4117
2873, 4117, 5619, 5651, 5681
2874, 4205, 4118, 2675, 4160
2875, 4064, 2633, 4069, 2634
2876, 2634, 4069, 3995, 3888
2877, 4027, 4312, 4064, 2634
2878, 3740, 4027, 2634, 3888
2879, 4165, 4012, 5568, 4202
2880, 4293, 4364, 4442, 5741
2881, 4661, 2590, 4569, 4623
2882, 5771, 4569, 2610, 4621
2883, 4523, 4469, 4623, 4569
2884, 4523, 5771, 2611, 5741
2885, 4243, 4315, 2633, 4064
2886, 4302, 5678, 4367, 2643
2887, 4256, 4302, 5700, 4202
2888, 4303, 2417, 4419, 4369
2889, 4549, 4766, 4489, 4533
2890, 4633, 4755, 4638, 2479
2891, 4638, 4687, 4597, 2479
2892, 4584, 4630, 4704, 5655
2893, 4586, 5657, 4601, 2564
2894, 4452, 4507, 2553, 4479
2895, 4479, 4403, 5695, 4452
2896, 4364, 4293, 5677, 2612
2897, 2613, 4067, 4138, 4074
2898, 2642, 4165, 4202, 5700
2899, 4518, 4459, 4419, 2417
2900, 4518, 4563, 5763, 2418
2901, 4001, 4072, 4326, 2462
2902, 5625, 2461, 4796, 4377
2903, 4529, 4590, 4474, 2480
2904, 5217, 4395, 4528, 2516
2905, 2536, 4520, 4566, 4465
2906, 4460, 2563, 4261, 5558
2907, 5615, 4067, 4130, 4311
2908, 3496, 2410, 3419, 3576
2909, 3062, 2411, 3148, 3218
2910, 3212, 5324, 3325, 3318
2911, 3849, 3739, 2409, 3495
2912, 4257, 4294, 4368, 4303
2913, 5910, 5179, 5123, 2401
2914, 4605, 4712, 4606, 4591
2915, 3679, 3594, 3527, 2396
2916, 3028, 2394, 3127, 3118
2917, 4698, 4783, 4775, 2434
2918, 4604, 4698, 2434, 5691
2919, 2453, 4558, 4485, 5664
2920, 4485, 4511, 2452, 4263
2921, 4263, 4406, 5664, 4485
2922, 4406, 5663, 5697, 4788
2923, 4407, 4339, 2497, 4484
2924, 4212, 2507, 4394, 5577
2925, 4624, 4537, 2526, 4666
2926, 4813, 4726, 5692, 4768
2927, 4767, 4799, 5711, 4719
2928, 4583, 2406, 4653, 4629
2929, 4583, 4629, 4676, 2442
2930, 4720, 4883, 4826, 4782
2931, 4885, 2460, 4826, 2459
2932, 5052, 2477, 5755, 4941
2933, 2514, 4899, 4928, 4991
2934, 4763, 4724, 4866, 4898
2935, 4801, 4710, 5735, 4956
2936, 4833, 4769, 2565, 4873
2937, 4661, 4623, 2591, 4727
2938, 2430, 3032, 3131, 3130
2939, 3528, 3363, 3500, 5476
2940, 5540, 3942, 5477, 3744
2941, 4700, 4611, 4670, 5005
2942, 5004, 4926, 2455, 5028
2943, 2439, 5180, 5159, 5109
2944, 5037, 5764, 4922, 5776
2945, 5002, 5029, 2458, 5776
2946, 4423, 4376, 4307, 2443
2947, 4072, 4001, 5694, 3997
2948, 2445, 3813, 3889, 5498
2949, 5381, 3747, 3664, 3555
2950, 3154, 2447, 3062, 3218
2951, 4848, 4831, 2399, 4771
2952, 4489, 4423, 2443, 4533
2953, 5386, 3205, 5213, 2449
2954, 2450, 3501, 3630, 3660
2955, 4180, 4603, 2451, 5499
2956, 3814, 3854, 3660, 3630
2957, 4735, 2454, 4670, 2453
2958, 4972, 4884, 5787, 4923
2959, 5022, 5904, 2493, 5055
2960, 5196, 5195, 2456, 5165
2961, 2490, 4952, 4990, 5098
2962, 2491, 5098, 5093, 5099
2963, 4756, 4713, 2488, 5582
2964, 2462, 5625, 4377, 4169
2965, 3883, 3828, 2463, 3937
2966, 2465, 5301, 3374, 5221
2967, 2947, 2946, 3032, 2430
2968, 3526, 2504, 3752, 3561
2969, 3794, 2505, 3947, 3877
2970, 3891, 3984, 2499, 5453
2971, 5561, 4005, 2498, 3984
2972, 5617, 4418, 5577, 4394
2973, 4094, 4020, 4016, 5521
2974, 5683, 5617, 4394, 4536
2975, 4711, 2471, 4753, 2472
2976, 4774, 4836, 4854, 5766
2977, 5095, 5905, 4994, 5043
2978, 2511, 5176, 5107, 5102
2979, 2491, 5838, 5182, 5795
2980, 5843, 5826, 5140, 5104
2981, 4866, 5682, 4899, 2514
2982, 4395, 2480, 4474, 4528
2983, 2482, 3905, 3929, 4033
2984, 3712, 2484, 3550, 2485
2985, 4356, 2486, 4476, 4399
2986, 4529, 2487, 4625, 4590
2987, 4633, 2488, 4713, 4755
2988, 4904, 5017, 5060, 2489
2989, 5142, 5872, 5853, 5192
2990, 4994, 5905, 5890, 4948
2991, 4914, 4854, 4836, 2473
2992, 4593, 2496, 4407, 4610
2993, 5436, 3785, 5453, 2499
2994, 2500, 5387, 5304, 3859
2995, 2502, 2950, 2986, 3095
2996, 3517, 3592, 3267, 2522
2997, 4245, 2506, 4355, 4281
2998, 5521, 4016, 5501, 4151
2999, 2508, 4536, 4495, 4573
3000, 5734, 4673, 4772, 2509
3001, 4807, 4804, 4896, 2510
3002, 5108, 5892, 2530, 5913
3003, 5808, 5079, 5843, 5104
3004, 5808, 5104, 2532, 5100
3005, 4724, 2515, 5682, 4866
3006, 4630, 4584, 2535, 4677
3007, 4566, 4520, 2517, 5217
3008, 4216, 2519, 4113, 5441
3009, 4248, 4285, 5305, 2519
3010, 2962, 3083, 5276, 3029
3011, 3158, 3098, 2522, 3267
3012, 3974, 3792, 3874, 4015
3013, 4555, 4492, 4535, 2573
3014, 4186, 4535, 5567, 4019
3015, 2527, 4624, 4666, 4868
3016, 4793, 4847, 4918, 2528
3017, 4925, 4864, 4895, 4946
3018, 5023, 5042, 4947, 2569
3019, 5119, 5094, 2531, 5913
3020, 2566, 4907, 5035, 5169
3021, 2534, 4763, 5735, 4710
3022, 4551, 2535, 4584, 5656
3023, 4017, 4105, 4183, 4337
3024, 5446, 4252, 2537, 4105
3025, 2539, 4525, 3736, 5225
3026,  275, 2933, 2952,  274
3027, 2540, 5321, 5224, 3553
3028, 3881, 4277, 5230, 5388
3029, 4689, 2544, 4693, 4647
3030, 4627, 4581, 4740, 2583
3031, 5744, 4961, 5789, 4910
3032, 4964, 4911, 2547, 5789
3033, 4950, 4863, 5886, 4951
3034, 4937, 5011, 4984, 2550
3035, 5788, 4955, 4976, 5797
3036, 4892, 4861, 5874, 2589
3037, 2550, 4809, 5887, 4937
3038, 4452, 5695, 5665, 2554
3039, 3436, 2595, 3506, 5440
3040, 2558, 3375, 3357, 3396
3041, 4507, 4452, 2554, 4543
3042, 5714, 4800, 2564, 4639
3043, 4987, 5894, 5912, 2568
3044, 4987, 2568, 5057, 4951
3045, 4946, 5010, 5049, 2569
3046, 4962, 5207, 4876, 4910
3047, 4048, 4015, 2575, 5411
3048, 3552, 3807, 3917, 3606
3049, 3969, 4086, 5400, 3925
3050, 2580, 4086, 4149, 5503
3051, 4628, 4581, 5633, 2582
3052, 4405, 4335, 4259, 5572
3053, 4705, 4659, 4749, 2586
3054, 4745, 4738, 5824, 2587
3055, 2609, 4781, 4737, 4557
3056, 4674, 2588, 5812, 4618
3057, 3742, 3728, 3505, 2594
3058, 2595, 3436, 3308, 3217
3059, 2596, 3108, 3142, 3153
3060, 2597, 3275, 3204, 3191
3061, 2599, 3786, 3686, 4038
3062, 4038, 5487, 4095, 4050
3063, 4275, 2600, 4316, 2601
3064, 2651, 4499, 4539, 5661
3065, 4482, 4450, 4510, 4513
3066, 4501, 4447, 4389, 4433
3067, 2608, 4496, 4437, 4550
3068, 5760, 5759, 4565, 5796
3069, 4550, 4437, 4497, 4556
3070, 3868, 3497, 3787, 3944
3071, 5437, 3420, 5490, 3319
3072, 3147, 3055, 2616, 5396
3073,  278,  279, 2964, 2931
3074, 3545, 3563, 3379, 5420
3075, 2620, 3834, 3964, 4037
3076, 4062, 2621, 5616, 4000
3077, 4385, 5634, 4429, 5576
3078, 2651, 4575, 4268, 4347
3079, 4070, 5706, 5652, 2666
3080, 4538, 4499, 4443, 4574
3081, 4345, 2626, 4267, 5718
3082, 2626, 4345, 5624, 4031
3083, 2628, 4172, 4128, 3993
3084, 4058, 2628, 3993, 3907
3085, 4198, 4241, 2646, 4297
3086, 2630, 4334, 4279, 4159
3087, 3986, 2673, 4117, 4054
3088, 3953, 4045, 2629, 4058
3089, 4384, 4322, 4428, 5731
3090, 2611, 5771, 4621, 4665
3091, 4036, 4118, 4205, 2632
3092, 3655, 2635, 3740, 3888
3093, 3492, 2636, 3417, 3575
3094, 3064, 2637, 3150, 3220
3095, 3323, 2639, 3327, 2638
3096, 3319, 5438, 3538, 5377
3097, 4271, 4230, 2647, 4389
3098, 4366, 4381, 4301, 2654
3099, 5616, 3835, 5534, 4000
3100, 3798, 3618, 3685, 3834
3101, 3279, 3516, 2656, 3269
3102, 3543, 3638, 3581, 3636
3103, 2661, 3721, 3545, 5420
3104, 5533, 3773, 3598, 3715
3105, 3903, 3715, 3774, 4176
3106, 3799, 5539, 2663, 5570
3107, 3761, 2688, 5611, 5612
3108, 5575, 3793, 5549, 5597
3109, 2690, 3763, 3824, 5523
3110, 3690, 2669, 3763, 5566
3111, 5594, 3776, 3603, 3717
3112, 3583, 3670, 3804, 5593
3113, 3756, 2674, 3681, 3612
3114, 3902, 3830, 2697, 3730
3115, 3830, 3902, 3971, 5537
3116, 3765, 3694, 2677, 5546
3117, 2678, 5510, 3720, 3264
3118, 3064, 3156, 2679, 2996
3119, 5409, 3402, 2683, 3615
3120, 3467, 3287, 3389, 2684
3121, 5432, 3362, 5447, 3584
3122, 3404, 5479, 2711, 3299
3123, 2710, 5431, 3390, 5481
3124, 3482, 3302, 5426, 5492
3125, 3407, 5430, 3472, 5492
3126, 2695, 5595, 3386, 3462
3127, 3444, 2693, 3384, 3430
3128, 2721, 3591, 3524, 3439
3129, 3484, 3305, 3408, 2699
3130, 5418, 3475, 5458, 2699
3131, 3360, 2700, 3448, 3303
3132, 3201, 3266, 3093, 2681
3133, 2703, 3425, 3368, 3242
3134, 3079, 3046, 2729, 3166
3135, 3001, 2730, 5320, 3101
3136, 3196, 3008, 2732, 3203
3137, 2733, 3050, 3090, 3176
3138, 3479, 3404, 3299, 3572
3139, 3076, 3002, 2735, 3334
3140, 2735, 2897, 2898, 3530
3141, 3512, 3530, 2736, 3434
3142, 3120, 3015, 2739, 5318
3143, 3185, 3353, 3250, 5313
3144, 3284, 3462, 3386, 2718
3145, 3102, 3052, 2742, 5312
3146, 3047, 2901, 2861, 2743
3147, 3080, 3169, 5270, 3047
3148, 3224, 3069, 3160, 2722
3149, 3048, 2746, 5281, 3085
3150, 3117, 3004, 2747, 3187
3151, 2925, 2702,  291,  292
3152, 2734, 3002, 3076, 3165
3153, 3052, 2841, 2860, 2742
3154, 3052, 3102, 5313, 2741
3155, 4564, 4653, 4459, 4518
3156, 5255, 5252, 5261, 2062
3157, 2902, 2887, 3519, 2065
3158, 2903, 2886, 2066, 3051
3159, 2904, 2837, 2067, 5269
3160, 2884, 2068, 3010, 2905
3161, 2835, 2069, 3011, 2906
3162, 2907, 2880, 2999, 2071
3163, 2908, 2879, 2072, 3529
3164, 2833, 2909,  190,  191
3165, 2832, 2847,  187,  188
3166, 3012, 2910, 2877, 5271
3167, 2848, 2844,  179,  180
3168, 2873, 2079, 3013, 2912
3169, 2826, 2849,  175,  176
3170, 2825, 2913,  170,  171
3171, 2851, 2823, 3340, 2084
3172, 2922,  256,    8, 2944
3173,  256, 2922, 2945,  255
3174,  254, 2949, 2953,  253
3175, 2939,  252,  253, 2953
3176,  250, 2935, 2932,  249
3177,  248, 2968, 2961,  247
3178, 2961, 2927,  246,  247
3179, 2960,  245,  246, 2927
3180,  244,  245, 2960, 2288
3181,  243, 2954, 3018,  242
3182,  241, 2963, 2929,  240
3183,  240, 2929, 2976,  239
3184, 2213,  236,  237, 3019
3185,  236, 2213, 2971,  235
3186,  234, 2942, 2975,  233
3187, 2966,  230,  231, 2172
3188,  230, 2966, 2956,  229
3189, 2085,  222,  223, 2978
3190,  221, 2967, 2930,  220
3191, 2864,  218,  219, 5241
3192,  295,    2,   63, 2867
3193,  294,  295, 2867, 3020
3194,  288,  289, 2974, 2924
3195,  286,  287, 2980, 2659
3196,  281,  282, 2658, 3017
3197,  277,  278, 2931, 5254
3198,  276, 5256, 2933,  275
3199, 2940,  272,  273, 2959
3200, 2972, 5253, 2940, 2577
3201, 2502,  268,  269, 2950
3202, 2981, 2937, 2502, 3095
3203,  265, 2938, 2941,  264
3204,  262, 2934, 2946,  261
3205,  261, 2946, 2947,  260
3206,  259, 2948, 2958,  258
3207, 2943,  257,  258, 2958
3208, 2867,   63,   62, 2865
3209, 2839, 2914,   60,   59
3210, 2915, 2894, 3014, 5263
3211, 2893, 2728, 3938, 2916
3212, 2853,   50,   49, 2885
3213, 2854,   48,   47, 2883
3214, 2855,   45,   44, 2882
3215, 2897,   39,   38, 2898
3216,   34, 2831, 2917,   35
3217, 2875, 2739, 3015, 2918
3218,   29, 2828, 2859,   30
3219,   26, 2841, 2919,   27
3220,   25, 2860, 2841,   26
3221,   21, 2842, 2861,   22
3222, 2870, 2744, 5267, 2920
3223,   17, 2862, 2824,   18
3224,   14, 2821, 2921,   15
3225,  297, 2776, 2777,  296
3226,  299, 2775, 2778,  298
3227,  301, 2774, 2779,  300
3228,  303, 2773, 2780,  302
3229,  305, 2772, 2781,  304
3230,  306, 2782, 2772,  305
3231,  308, 2771, 2783,  307
3232,  310, 2770, 2784,  309
3233,  312, 2769, 2785,  311
3234,  314, 2768, 2786,  313
3235,  316, 2767, 2787,  315
3236,  318, 2766, 2788,  317
3237,  320, 2765, 2789,  319
3238,  322, 2764, 2790,  321
3239,  324, 2763, 2791,  323
3240,  326, 2762, 2792,  325
3241,  328, 2761, 2793,  327
3242,  330, 2760, 2794,  329
3243,  331, 2795, 2760,  330
3244,  333, 2759, 2796,  332
3245,  335, 2758, 2797,  334
3246,  337, 2757, 2798,  336
3247,  339, 2756, 2799,  338
3248,  341, 2755, 2800,  340
3249,  343, 2754, 2801,  342
3250,  345, 2753, 2802,  344
3251,  347, 2752, 2803,  346
3252,  349, 2751, 2804,  348
3253,  351, 2750, 2805,  350
3254,  353, 2749, 2806,  352
3255,  355, 2748, 2807,  354
3256,  356, 2808, 2748,  355
3257,  358, 2814, 2815,  357
3258,  360, 2813, 2816,  359
3259,  362, 2812, 2817,  361
3260,  364, 2811, 2818,  363
3261,  366, 2810, 2819,  365
3262,  368, 2809, 2820,  367
3263, 2749, 2807, 2994, 3113
3264, 3822, 3847, 2269, 3711
3265, 4082, 4211, 2270, 3988
3266, 4397, 4481, 2306, 4287
3267, 3449, 2800, 2755, 2342
3268, 3373, 2343, 3449, 3610
3269, 3111, 2758, 2798, 2376
3270, 2759, 2797, 2992, 3486
3271, 2761, 2794, 2995, 3109
3272, 3821, 3846, 2484, 3712
3273, 4081, 4210, 2483, 3989
3274, 4398, 4480, 2520, 4285
3275, 3451, 2787, 2767, 2559
3276, 3375, 2558, 3451, 3609
3277, 3107, 2770, 2785, 2596
3278, 2784, 2990, 3485, 2771
3279, 2773, 2781, 2996, 2679
3280, 2724, 3187, 2778, 2775
3281, 2776, 2747, 2822, 2777
3282, 2821, 2822, 2747, 3004
3283, 2779, 2774, 2701, 3580
3284, 2783, 2771, 3485, 2638
3285, 2785, 2769, 3108, 2596
3286, 2768, 2558, 3396, 2786
3287, 2766, 2539, 5225, 2788
3288, 2765, 2520, 4480, 2789
3289, 2764, 2483, 4210, 2790
3290, 2763, 2484, 3846, 2791
3291, 2762, 2465, 5221, 2792
3292, 3381, 2991, 2795, 2796
3293, 2798, 2757, 3112, 2376
3294, 2756, 2343, 3395, 2799
3295, 2754, 2324, 5226, 2801
3296, 2753, 2306, 4481, 2802
3297, 2752, 2270, 4211, 2803
3298, 2751, 2269, 3847, 2804
3299, 2750, 2251, 5220, 2805
3300, 3380, 2993, 2808, 2815
3301, 3546, 3725, 2084, 3235
3302, 2809,  368,  369, 5257
3303, 3447, 2819, 2810, 2106
3304, 3372, 5286, 3447, 2106
3305, 3115, 2813, 2817, 2150
3306, 2814, 2816, 2997, 3487
3307, 2817, 2812, 3116, 2150
3308, 2811, 2128, 3394, 2818
3309, 2820, 2809, 2084, 3725
3310, 2921, 2821, 3004, 2746
3311, 2851, 2084, 2809, 5257
3312, 2870, 2824, 2998, 2744
3313, 2825, 2082, 3003, 2913
3314,  176,  177, 2912, 2826
3315, 2876,   28,   27, 2919
3316,  184,  185, 2910, 2829
3317, 3257, 5229, 2076, 3189
3318, 2830,   33,   32, 2918
3319, 2917, 2737, 3044, 2899
3320, 2074, 3006, 2832, 2878
3321,  191,  192, 2908, 2833
3322,  197,  198, 2906, 2834
3323,  199,  200, 2905, 2835
3324, 2884, 2836, 3343, 2068
3325,  203,  204, 2837, 2904
3326,  204,  205, 2903, 2837
3327, 2886, 2838, 3000, 2066
3328, 2839,   59,   58, 2915
3329, 2839, 2726, 3016, 2914
3330, 2840,   56,   55, 2916
3331, 2916,   55,   54, 2893
3332, 2861, 2842, 5268, 2743
3333,   21,   20, 2920, 2842
3334, 2879, 2843, 3045, 2072
3335,  194,  195, 2907, 2843
3336, 2873, 2844, 3053, 2079
3337,  213,  214, 2890, 2845
3338, 2845, 2890, 3049, 2063
3339, 2877, 2847, 2075, 5271
3340, 3535, 2081, 5264, 3635
3341, 2082, 2825, 2850, 3041
3342, 3046, 2852, 2891, 2729
3343, 2728, 2893, 2852, 3046
3344, 2885,   49,   48, 2854
3345, 3001, 2892, 2853, 2730
3346, 2883,   47,   46, 2881
3347, 2882,   44,   43, 2856
3348, 2855, 2732, 3008, 2881
3349, 2895,   42,   41, 2896
3350, 3238, 3342, 2733, 3176
3351, 3002, 2857, 2897, 2735
3352, 2896, 2734, 3050, 2895
3353, 2899,   36,   35, 2917
3354, 3530, 2898, 2858, 2736
3355, 2739, 2875, 2859, 3005
3356, 2900,   24,   23, 2901
3357, 2900, 2901, 3047, 5270
3358, 2868,   16,   15, 2921
3359, 2862, 2868, 3048, 2745
3360,  215,  216, 2863, 5252
3361, 5241,  219,  220, 2930
3362, 5262, 3049, 2890, 5259
3363,  215, 5252, 5255,  214
3364, 2913, 2869,  169,  170
3365, 5283, 3340, 2083, 5307
3366, 2872, 2871,  173,  174
3367, 2872, 2849, 3635, 5264
3368,  177,  178, 2873, 2912
3369, 2911, 2874,  181,  182
3370, 2848, 2874, 3341, 2078
3371, 2740, 2828, 2876, 3344
3372,  185,  186, 2877, 2910
3373, 2909, 2878,  189,  190
3374,  192,  193, 2879, 2908
3375,  195,  196, 2880, 2907
3376,  200,  201, 2884, 2905
3377,  205,  206, 2886, 2903
3378,  208,  209, 2887, 2902
3379, 2889, 2888,  211,  212
3380, 3042, 2888, 2889, 5265
3381, 2890,  214, 5255, 5259
3382, 2726, 2839, 2915, 5263
3383, 2896, 2857, 3002, 2734
3384, 2742, 2860, 2900, 5270
3385, 2911, 2827, 5229, 2077
3386, 2737, 2917, 2831, 3007
3387, 2741, 2919, 2841, 3052
3388, 2429, 3023, 2922, 2944
3389, 2923, 2107, 3241, 2977
3390, 2980, 2924, 2680, 3093
3391, 3086, 3097, 2725, 3016
3392, 2926,  238,  239, 2976
3393, 2928, 2702, 3097, 2983
3394, 2578, 5254, 2931, 3191
3395, 2935,  250,  251, 2955
3396, 3036, 3027, 2952, 2933
3397, 2946, 2934, 2448, 3032
3398, 2934,  262,  263, 2951
3399, 3314, 3441, 2359, 3209
3400, 2936, 2987, 3038, 2129
3401,  266, 2962, 2938,  265
3402, 3029, 3030, 2938, 2962
3403, 2360, 3031, 2939, 2953
3404, 2951, 2941, 3428, 3034
3405, 2212, 3311, 5316, 3551
3406, 2394, 3028, 2943, 2958
3407, 2949, 2945, 2377, 3026
3408, 2948, 2947, 2430, 3025
3409, 2986, 2521, 3098, 3158
3410, 2959, 2952, 3027, 3040
3411, 2982, 3252, 2288, 2960
3412, 2935, 2955, 2359, 3441
3413, 2988, 2957, 2970, 3037
3414, 2617, 2965, 2957, 2988
3415, 2540, 3547, 3027, 3036
3416, 2961, 2968, 3024, 3021
3417, 2962, 2937, 2981, 3083
3418, 3018, 3181, 2061, 2963
3419, 2964, 2597, 3191, 2931
3420, 2965, 2617, 2985, 2658
3421, 2151, 3253, 3186, 3104
3422, 2967, 2085, 3096, 2062
3423, 2968, 2932, 3429, 3024
3424, 3020, 2969,  293,  294
3425, 3037, 2970, 2659, 3266
3426, 3067, 2973, 3017, 3068
3427, 2680, 2924, 2974, 3242
3428, 2173, 5272, 3551, 5316
3429, 3033, 3022, 2976, 2929
3430, 2107, 2923, 2979, 3092
3431, 5278, 2981, 3095, 2503
3432, 3489, 3252, 2982, 2289
3433, 2725, 3097, 2702, 2925
3434, 2703, 3242, 2983, 3136
3435, 3137, 3087, 3096, 2984
3436, 3096, 2085, 2978, 2984
3437, 3095, 2986, 3158, 2503
3438, 3252, 5277, 5273, 2288
3439, 2287, 5273, 3099, 3181
3440, 2987, 2130, 3619, 3038
3441, 3378, 3105, 2660, 3543
3442, 2783, 2638, 2989, 2782
3443, 2637, 3106, 2989, 3058
3444, 2990, 2616, 3055, 3485
3445, 3061, 3107, 2596, 3153
3446, 3381, 3056, 2411, 2991
3447, 3110, 2991, 2411, 3062
3448, 2992, 2393, 3057, 3486
3449, 3111, 2376, 5299, 3063
3450, 3380, 3054, 2193, 2993
3451, 3114, 2993, 2193, 3060
3452, 3114, 3060, 2232, 2994
3453, 3113, 2994, 2232, 3143
3454, 3110, 3062, 2447, 2995
3455, 3109, 2995, 2447, 3141
3456, 3064, 2996, 3106, 2637
3457, 2997, 2171, 3059, 3487
3458, 3115, 2150, 5289, 3065
3459, 3182, 5320, 2730, 3009
3460, 3133, 2740, 3195, 3370
3461, 3163, 3346, 5296, 3074
3462, 3089, 2738, 3173, 3237
3463, 3008, 3196, 3134, 5266
3464, 5297, 5271, 2075, 3174
3465, 3014, 5308, 3071, 5263
3466, 3256, 5318, 3188, 2716
3467, 3082, 3021, 2307, 3170
3468, 3066, 3022, 2233, 3159
3469, 3118, 3126, 2429, 3028
3470, 2325, 3365, 3024, 3429
3471, 3122, 3124, 2377, 3023
3472, 3040, 3027, 3547, 5274
3473, 3753, 3030, 2466, 5304
3474, 2501, 3428, 3030, 3753
3475, 2938, 3030, 3428, 2941
3476, 3129, 3125, 2360, 3026
3477, 3205, 3131, 3032, 2448
3478, 3312, 3205, 2448, 3034
3479, 3193, 3132, 5331, 2214
3480, 3266, 2659, 2980, 3093
3481, 3619, 3536, 5401, 2108
3482, 3036, 3039, 5321, 2540
3483, 3070, 3041, 2081, 3330
3484, 3162, 5319, 2737, 3007
3485, 3167, 3349, 5292, 3078
3486, 3169, 5312, 2742, 5270
3487, 3054, 2192, 3324, 5326
3488, 3485, 3055, 3323, 2638
3489, 3056, 2412, 3325, 5324
3490, 2412, 3486, 3057, 3326
3491, 2192, 3487, 3059, 3328
3492, 3061, 3153, 3217, 5396
3493, 3107, 3061, 2616, 2990
3494, 5299, 3219, 5345, 3063
3495, 3111, 3063, 2393, 2992
3496, 3221, 5341, 5340, 2149
3497, 3115, 3065, 2171, 2997
3498, 3132, 3194, 3522, 5331
3499, 2657, 3199, 3067, 3068
3500, 3259, 3198, 2985, 2617
3501, 3069, 3224, 3331, 5282
3502, 2744, 2998, 3069, 5282
3503, 3161, 3070, 3223, 3454
3504, 3071, 2703, 3136, 5275
3505, 3137, 5279, 2063, 3049
3506, 3309, 2087, 5280, 3072
3507, 5260, 3073, 2866, 2914
3508, 2969, 3020, 3073, 5260
3509, 3074, 3332, 3225, 3163
3510, 3075, 5319, 3226, 3333
3511, 3227, 3076, 3334, 5361
3512, 3165, 3076, 3227, 3347
3513, 3077, 3164, 5332, 3228
3514, 3335, 3077, 3228, 2095
3515, 3078, 3336, 3229, 3167
3516, 3079, 3166, 5356, 3230
3517, 3337, 3079, 3230, 5358
3518, 3080, 3338, 5335, 3231
3519, 3169, 3080, 3231, 2719
3520, 3081, 3168, 2102, 3232
3521, 3339, 3081, 3232, 2103
3522, 2289, 2982, 3082, 3170
3523, 2503, 3526, 3561, 5278
3524, 3084, 3161, 3454, 3233
3525, 3084, 3233, 3172, 5307
3526, 3171, 3234, 3085, 5281
3527, 3088, 5296, 3346, 3236
3528, 3174, 3088, 3236, 5336
3529, 3090, 3165, 3347, 3239
3530, 3176, 3090, 3239, 5362
3531, 3091, 3175, 3240, 5214
3532, 3093, 2680, 3178, 2681
3533, 3273, 3094, 2061, 3181
3534, 3094, 3273, 2252, 3369
3535, 2984, 5311, 5279, 3137
3536, 3180, 3098, 2521, 2972
3537, 3243, 2522, 3098, 3180
3538, 3100, 5292, 3349, 5322
3539, 3183, 5293, 3245, 5323
3540, 3101, 5320, 3246, 5211
3541, 5312, 3350, 3248, 3102
3542, 3102, 3248, 3185, 5313
3543, 3249, 3103, 3184, 2101
3544, 3103, 3249, 5210, 3168
3545, 3104, 3186, 3254, 3354
3546, 3378, 3322, 3259, 3105
3547, 2618, 3198, 3259, 3322
3548, 3142, 3108, 3396, 3357
3549, 3109, 3141, 5300, 3541
3550, 3395, 3140, 5298, 3112
3551, 3113, 3143, 5290, 3542
3552, 3394, 3138, 5288, 3116
3553, 3270, 3117, 3187, 2724
3554, 3117, 3270, 3171, 5281
3555, 3119, 5297, 3453, 3255
3556, 3189, 3119, 3255, 5337
3557, 3120, 5318, 3256, 5235
3558, 3258, 3121, 3190, 2092
3559, 3121, 3258, 5236, 3175
3560, 3124, 3122, 3656, 2378
3561, 3123, 3130, 3144, 2395
3562, 3123, 2395, 3652, 3127
3563, 3039, 3204, 3321, 5321
3564, 3124, 2378, 3145, 3129
3565, 3125, 3399, 3206, 3200
3566, 2428, 3126, 3118, 5385
3567, 3596, 3656, 2428, 3732
3568, 3192, 3208, 3128, 2731
3569, 3182, 3128, 3208, 2707
3570, 3129, 3145, 3399, 3125
3571, 2431, 3144, 3130, 3131
3572, 3193, 2214, 3671, 2211
3573, 3188, 3133, 3370, 2716
3574, 3134, 3196, 3202, 2708
3575, 3371, 3135, 3197, 2091
3576, 3190, 3135, 3371, 2092
3577, 5263, 3071, 5275, 2726
3578, 5279, 3268, 5265, 2063
3579, 5383, 3265, 3507, 3437
3580, 3156, 2678, 3264, 3139
3581, 2701, 3540, 3139, 3360
3582, 3155, 3263, 2375, 5355
3583, 5298, 3140, 3155, 5344
3584, 3262, 3154, 2446, 3857
3585, 3153, 3261, 2595, 3217
3586, 3260, 3152, 2231, 3856
3587, 5224, 2579, 3805, 3553
3588, 3274, 3144, 2431, 3528
3589, 3272, 3145, 2378, 3531
3590, 2361, 3399, 3145, 3272
3591, 3216, 3146, 5371, 3498
3592, 3308, 5437, 2615, 3217
3593, 2411, 3056, 5324, 3148
3594, 3213, 3149, 2392, 3317
3595, 2393, 3063, 5345, 3149
3596, 2636, 3492, 3150, 3214
3597, 3215, 3151, 2170, 3315
3598, 3746, 2250, 3856, 3783
3599, 3784, 2464, 3857, 3646
3600, 5355, 3219, 5344, 3155
3601, 3156, 3064, 3220, 2678
3602, 5353, 3522, 3159, 3329
3603, 3159, 2233, 3222, 3329
3604, 3162, 2714, 3226, 5319
3605, 3286, 5364, 5322, 3349
3606, 2307, 3271, 5351, 3170
3607, 3234, 3171, 2723, 3293
3608, 3372, 2106, 5284, 3474
3609, 3237, 3173, 2715, 5357
3610, 3240, 3175, 5236, 2093
3611, 3348, 2709, 3203, 3238
3612, 3579, 5350, 2108, 5401
3613, 3291, 3241, 2107, 3177
3614, 3178, 3368, 3422, 5328
3615, 5277, 3252, 3489, 3207
3616, 3179, 2286, 3244, 3099
3617, 3243, 3180, 3278, 2576
3618, 3182, 2707, 3246, 5320
3619, 5293, 3183, 5269, 2067
3620, 2739, 3005, 3188, 5318
3621, 2099, 3458, 3355, 5337
3622, 2708, 5363, 3192, 3134
3623, 3522, 3194, 3066, 3159
3624, 3370, 3195, 2717, 5359
3625, 3202, 3196, 3203, 2709
3626, 3198, 2618, 3279, 2657
3627, 2597, 3067, 3199, 3275
3628, 3269, 3199, 2657, 3279
3629, 3209, 3200, 3206, 2358
3630, 2359, 3031, 3200, 3209
3631, 3638, 3543, 2660, 3201
3632, 3202, 2709, 3362, 5432
3633, 2431, 5386, 3363, 3528
3634, 5386, 2431, 3131, 3205
3635, 5213, 3205, 3312, 3377
3636, 2361, 3364, 3206, 3399
3637, 3207, 3313, 3179, 5277
3638, 3277, 5346, 3489, 2289
3639, 5363, 3298, 3208, 3192
3640, 3925, 2579, 3321, 3423
3641, 5371, 3210, 2194, 3421
3642, 5437, 3211, 3147, 2615
3643, 3323, 3211, 5377, 2639
3644, 3218, 3212, 2410, 3496
3645, 3214, 5419, 3316, 2636
3646, 3152, 3216, 3498, 2231
3647, 2446, 3154, 3218, 3496
3648, 3307, 3219, 5355, 5395
3649, 3149, 5345, 5380, 2392
3650, 3150, 3492, 5509, 3220
3651, 3221, 2170, 3151, 5341
3652, 2233, 5330, 5206, 3222
3653, 4129, 4060, 2215, 5416
3654, 5389, 3304, 5405, 3223
3655, 5354, 3331, 3224, 3305
3656, 2096, 3301, 3225, 3332
3657, 2097, 3163, 3225, 3406
3658, 5426, 3226, 2714, 3407
3659, 3302, 3333, 3226, 5426
3660, 5361, 3299, 2711, 3227
3661, 3347, 3227, 2711, 3288
3662, 2088, 3296, 3229, 3336
3663, 2089, 3167, 3229, 3403
3664, 5356, 3297, 5448, 3230
3665, 3231, 5335, 3294, 2719
3666, 3233, 2105, 3345, 3172
3667, 2722, 3234, 3293, 3408
3668, 5336, 3236, 5367, 2098
3669, 2714, 3237, 5357, 3407
3670, 3342, 2732, 2855, 2882
3671, 3347, 3288, 5431, 3239
3672, 2710, 5362, 3239, 5431
3673, 3289, 3240, 2093, 5421
3674, 5214, 3240, 3289, 2094
3675, 3241, 3291, 5311, 2984
3676, 3548, 3243, 2576, 3606
3677, 2252, 3273, 3244, 3413
3678, 5323, 3245, 2090, 3465
3679, 3246, 3287, 2706, 5211
3680, 5269, 3183, 3247, 3343
3681, 3284, 3248, 3350, 5433
3682, 2718, 3185, 3248, 3284
3683, 3285, 3249, 2101, 3387
3684, 3352, 3251, 3424, 2100
3685, 3410, 3310, 3186, 3253
3686, 3254, 3283, 2131, 3354
3687, 2099, 5337, 3255, 5368
3688, 5429, 3282, 5235, 3256
3689, 3281, 3258, 2092, 3383
3690, 5236, 3258, 3281, 3391
3691, 3356, 3260, 3856, 2250
3692, 3261, 2557, 3506, 2595
3693, 2464, 3358, 3262, 3857
3694, 3359, 3140, 3395, 2343
3695, 2344, 3509, 3263, 3359
3696, 5287, 3138, 3394, 2128
3697, 3265, 2127, 3650, 3507
3698, 2503, 3158, 3267, 3526
3699, 5311, 3291, 5349, 2086
3700, 2086, 3309, 3072, 3268
3701, 3275, 3366, 2598, 3204
3702, 3270, 2724, 3580, 3303
3703, 2723, 3171, 3270, 3303
3704, 2395, 3144, 3274, 3527
3705, 3311, 3276, 3411, 3442
3706, 5346, 3414, 3207, 3489
3707, 3457, 3382, 5368, 3280
3708, 2715, 5235, 3282, 3392
3709, 3385, 2153, 3460, 3283
3710, 5378, 3714, 3597, 5379
3711, 3388, 3286, 3466, 2111
3712, 3467, 3402, 2706, 3287
3713, 5480, 3390, 5431, 3288
3714, 3393, 3290, 3471, 2119
3715, 3089, 3237, 2714, 3162
3716, 3309, 2086, 5349, 3674
3717, 3292, 3454, 3223, 5405
3718, 2105, 3473, 3397, 3345
3719, 3408, 3293, 5418, 2699
3720, 2722, 3160, 3085, 3234
3721, 3294, 3476, 3400, 2719
3722, 3569, 3295, 3477, 2124
3723, 3296, 3570, 3478, 5399
3724, 5408, 5409, 3571, 5358
3725, 5448, 5408, 5358, 3230
3726, 3389, 3298, 3534, 2684
3727, 2707, 3208, 3298, 3389
3728, 5422, 5366, 3300, 3480
3729, 3406, 3225, 3301, 5390
3730, 3301, 3573, 3481, 5390
3731, 3302, 3482, 3677, 2713
3732, 3304, 3574, 5428, 3483
3733, 5405, 3483, 3409, 3292
3734, 3305, 3484, 3678, 5354
3735, 2170, 3221, 3306, 3416
3736, 3510, 5395, 2374, 5467
3737, 2392, 5380, 3307, 5402
3738, 3505, 3436, 5440, 2594
3739, 3432, 5280, 2087, 5314
3740, 3310, 2173, 3461, 2152
3741, 3312, 3034, 3428, 2501
3742, 3504, 2286, 3488, 5392
3743, 2286, 3179, 3313, 3488
3744, 2169, 3491, 3416, 3508
3745, 2191, 3215, 3315, 3600
3746, 2635, 3417, 3493, 3850
3747, 3494, 3418, 2391, 3872
3748, 3213, 3317, 3601, 2413
3749, 2410, 3212, 3318, 3419
3750, 2614, 5490, 3420, 5485
3751, 3319, 5377, 3211, 5437
3752, 5412, 2195, 3421, 2194
3753, 2194, 3210, 3320, 5412
3754, 5224, 5321, 3321, 2579
3755, 3686, 3786, 3544, 3618
3756, 5420, 3379, 3322, 3378
3757, 5419, 3327, 2639, 3316
3758, 3324, 2191, 3537, 3320
3759, 3318, 3325, 2413, 3539
3760, 3326, 3057, 3213, 2413
3761, 3214, 3058, 3327, 5419
3762, 2638, 3327, 3058, 2989
3763, 3328, 3059, 3215, 2191
3764, 5353, 5416, 3838, 2214
3765, 3330, 2081, 3535, 5347
3766, 2104, 5389, 3330, 5347
3767, 3333, 5360, 3434, 3075
3768, 2735, 3530, 3512, 3334
3769, 5361, 3334, 3512, 2712
3770, 3335, 2095, 5333, 3433
3771, 3519, 3432, 3587, 2065
3772, 3748, 3833, 2705, 3666
3773, 3590, 5334, 5285, 3533
3774, 5334, 5335, 3338, 5285
3775, 3633, 3698, 3339, 2103
3776, 3340, 2823, 2869, 2083
3777, 3341, 2874, 2911, 2077
3778, 3344, 2876, 2919, 2741
3779, 3346, 3163, 2097, 3290
3780, 2710, 3469, 3348, 5362
3781, 3349, 3167, 2089, 3286
3782, 3169, 2719, 3350, 5312
3783, 5433, 3350, 2719, 3400
3784, 3351, 5323, 3465, 5365
3785, 3185, 2718, 3463, 3353
3786, 3412, 3354, 2131, 3515
3787, 3376, 5291, 3452, 5327
3788, 5291, 5290, 3356, 3452
3789, 3451, 2558, 2768, 2787
3790, 3374, 5301, 3450, 5325
3791, 5301, 5300, 3358, 3450
3792, 3449, 2343, 2756, 2800
3793, 3303, 3448, 3398, 2723
3794, 3447, 2128, 2811, 2819
3795, 5432, 3584, 3518, 5363
3796, 3426, 3363, 5386, 2449
3797, 2358, 3206, 3364, 3427
3798, 3532, 3503, 3364, 2361
3799, 3440, 3365, 2325, 3415
3800, 3366, 3269, 2656, 3544
3801, 3271, 2308, 3367, 5351
3802, 3525, 3367, 2308, 3562
3803, 3661, 3523, 5274, 3547
3804, 3369, 2252, 3435, 5460
3805, 3559, 3444, 3430, 5359
3806, 3431, 3558, 5413, 3443
3807, 5348, 3474, 3397, 5393
3808, 3640, 3373, 3610, 3642
3809, 2484, 5221, 3374, 3550
3810, 3375, 3609, 3639, 2557
3811, 2269, 5220, 3376, 3549
3812, 3651, 5213, 2500, 5391
3813, 2618, 3322, 3379, 3456
3814, 2192, 3054, 3380, 3487
3815, 2412, 3056, 3381, 3486
3816, 2099, 5368, 3382, 5410
3817, 2692, 3392, 5462, 5495
3818, 3430, 2716, 3370, 5359
3819, 2152, 3461, 5455, 3385
3820, 3634, 3460, 2153, 3702
3821, 3386, 5595, 3463, 2718
3822, 3464, 3387, 2101, 3352
3823, 3388, 3566, 3465, 2090
3824, 5481, 3567, 5491, 3585
3825, 3470, 3391, 2114, 5414
3826, 3392, 2692, 3472, 5430
3827, 3457, 3393, 2119, 3865
3828, 3474, 5348, 5384, 3372
3829, 2700, 3607, 3398, 3448
3830, 2696, 3462, 3400, 3476
3831, 5210, 3401, 2102, 3168
3832, 3295, 2123, 3613, 3477
3833, 3466, 3403, 2110, 3758
3834, 3468, 5514, 2688, 3761
3835, 2094, 3289, 5421, 3405
3836, 2115, 3480, 3405, 5459
3837, 3471, 3406, 2118, 3762
3838, 3473, 3409, 2126, 3650
3839, 3410, 2172, 3446, 5272
3840, 3310, 3410, 5272, 2173
3841, 3445, 3411, 2211, 3560
3842, 3442, 3411, 3445, 2174
3843, 3490, 3209, 2358, 5397
3844, 2326, 3440, 3415, 3490
3845, 2169, 3871, 5434, 3491
3846, 3420, 5437, 3308, 5485
3847, 2614, 3787, 3497, 5490
3848, 3748, 2704, 3709, 3833
3849, 3925, 3423, 2599, 3969
3850, 2704, 3422, 3425, 3608
3851, 2449, 5213, 3651, 3501
3852, 3426, 3853, 3500, 3363
3853, 3502, 5397, 3578, 5445
3854, 3441, 3429, 2932, 2935
3855, 3431, 3371, 2091, 3558
3856, 3513, 3433, 5333, 3520
3857, 5460, 3435, 3624, 4324
3858, 3504, 3435, 2252, 3413
3859, 2720, 3590, 3524, 3667
3860, 3455, 3440, 2326, 3754
3861, 2308, 3271, 3440, 3455
3862, 3605, 3461, 2173, 5316
3863, 3442, 3605, 5316, 3311
3864, 5465, 3556, 3443, 5413
3865, 3557, 3444, 3559, 2694
3866, 2975, 3551, 5272, 3446
3867, 3610, 3449, 2342, 5295
3868, 2485, 5325, 3555, 5382
3869, 3609, 3451, 2559, 5303
3870, 2268, 5327, 3554, 5373
3871, 5336, 3453, 5297, 3174
3872, 2098, 3280, 3453, 5336
3873, 5496, 3754, 2326, 3502
3874, 3456, 2619, 4030, 3516
3875, 3769, 2120, 5452, 3865
3876, 5452, 3382, 3457, 3865
3877, 3355, 3458, 3781, 2100
3878, 3458, 2099, 5410, 3781
3879, 3459, 2113, 3669, 3582
3880, 2692, 5495, 3583, 3717
3881, 3586, 3675, 2132, 3683
3882, 3462, 2696, 3757, 2695
3883, 2122, 3714, 5378, 3285
3884, 2717, 3353, 3463, 3692
3885, 3467, 2684, 3598, 5489
3886, 2683, 3402, 3467, 5489
3887, 2687, 3390, 3468, 3876
3888, 3348, 3469, 3585, 2709
3889, 3469, 2710, 5481, 3585
3890, 5394, 3470, 5414, 3602
3891, 2691, 5492, 3472, 3603
3892, 2126, 3625, 3507, 3650
3893, 2127, 3397, 3473, 3650
3894, 3345, 3397, 3474, 5284
3895, 3398, 3607, 3475, 5418
3896, 3612, 3476, 5444, 5464
3897, 3604, 3636, 2682, 3615
3898, 2689, 3620, 3479, 3572
3899, 5515, 3404, 3479, 3687
3900, 3621, 3480, 2115, 5463
3901, 2116, 5423, 3588, 3676
3902, 5398, 3622, 3481, 3573
3903, 5528, 2691, 5566, 3623
3904, 2690, 3589, 3677, 3623
3905, 3628, 3483, 5428, 4134
3906, 3591, 3678, 2698, 3730
3907, 2253, 5392, 3488, 3564
3908, 3427, 3578, 5397, 2358
3909, 3499, 3537, 2190, 3848
3910, 3575, 3647, 5509, 3492
3911, 3850, 3493, 5468, 4023
3912, 3495, 3539, 2414, 3849
3913, 3317, 3418, 3494, 3601
3914, 5451, 3646, 3857, 2446
3915, 3498, 3577, 3645, 2231
3916, 3501, 3651, 5436, 3630
3917, 2362, 3855, 3503, 3532
3918, 5485, 3505, 3728, 2614
3919, 3506, 2557, 5374, 3648
3920, 2594, 5440, 3648, 3627
3921, 3649, 3509, 2344, 3810
3922, 5395, 3510, 5402, 3307
3923, 5350, 3674, 3177, 2108
3924, 3587, 2088, 3336, 2065
3925, 3513, 2096, 3332, 2073
3926, 2682, 3666, 2705, 3571
3927, 3666, 5329, 5328, 3748
3928, 2685, 5447, 3726, 5539
3929, 5401, 3536, 3599, 3723
3930, 3516, 4030, 3685, 2656
3931, 3548, 3517, 2522, 3243
3932, 3534, 3518, 2685, 4393
3933, 3676, 3588, 5333, 2095
3934, 2096, 3513, 3520, 3617
3935, 2713, 3677, 3589, 5427
3936, 2712, 3512, 3521, 3616
3937, 3522, 5353, 2214, 5331
3938, 3523, 3661, 2541, 3552
3939, 3523, 2576, 3278, 5274
3940, 3678, 3591, 2721, 5354
3941, 5370, 5334, 3590, 2720
3942, 2290, 3367, 3525, 3632
3943, 3533, 5267, 2744, 3439
3944, 2872, 5264, 2081, 2871
3945, 3635, 2080, 3339, 3698
3946, 3619, 2108, 3092, 3038
3947, 3538, 5468, 3493, 5439
3948, 2639, 5377, 3538, 5439
3949, 3540, 2701, 2774, 2780
3950, 3541, 2465, 2762, 2793
3951, 3542, 2251, 2750, 2806
3952, 3636, 3604, 2661, 3543
3953, 2598, 3366, 3544, 3786
3954, 4089, 4154, 2662, 5533
3955, 3725, 2106, 2810, 2820
3956, 3547, 2540, 3553, 3661
3957, 2268, 3549, 3376, 5327
3958, 2485, 3550, 3374, 5325
3959, 2576, 3523, 3552, 3606
3960, 3807, 3552, 2541, 5388
3961, 2541, 3661, 3553, 3805
3962, 3882, 3663, 2249, 4168
3963, 3719, 2463, 3828, 5425
3964, 3669, 3556, 3749, 2135
3965, 3670, 3557, 3750, 2671
3966, 2693, 3444, 3557, 3670
3967, 3558, 5365, 3691, 5413
3968, 2175, 3637, 3704, 3832
3969, 3672, 3561, 3752, 5317
3970, 3561, 3672, 5276, 3083
3971, 3562, 2309, 3696, 3525
3972, 3563, 2619, 3456, 3379
3973, 3705, 3565, 2120, 3769
3974, 3700, 5507, 5595, 2695
3975, 2694, 3559, 3692, 5507
3976, 5413, 3691, 2112, 5465
3977, 3793, 3567, 2687, 5549
3978, 3514, 3585, 5491, 2686
3979, 2124, 3729, 3668, 3569
3980, 2103, 3232, 3569, 3668
3981, 3478, 3570, 2109, 3614
3982, 3581, 3666, 2682, 3636
3983, 5358, 3571, 2705, 3337
3984, 3616, 3521, 5427, 3644
3985, 2117, 5398, 3573, 3617
3986, 3647, 3575, 2677, 3751
3987, 3576, 2409, 3654, 2445
3988, 2445, 3646, 5451, 3576
3989, 5471, 3645, 3577, 3653
3990, 5496, 3502, 5445, 2327
3991, 3665, 2109, 3570, 5315
3992, 3581, 2681, 5329, 3666
3993, 2114, 3459, 3582, 3716
3994, 5593, 3804, 2670, 5594
3995, 2685, 3518, 3584, 5447
3996, 3614, 3586, 3683, 2110
3997, 2088, 3587, 3511, 5315
3998, 3617, 3520, 3643, 2117
3999, 3616, 2689, 3572, 2712
4000, 5285, 3338, 2743, 5268
4001, 3592, 3517, 2523, 3724
4002, 3593, 5476, 3820, 2396
4003, 3731, 3594, 3679, 2427
4004, 3652, 5385, 3118, 3127
4005, 3713, 3595, 2379, 3795
4006, 2362, 3532, 3595, 3713
4007, 3731, 3732, 2428, 5385
4008, 3732, 3731, 2427, 5513
4009, 3682, 3597, 3772, 5474
4010, 3598, 3773, 3684, 5489
4011, 3599, 3515, 2109, 3665
4012, 3600, 3315, 3491, 5434
4013, 2414, 3601, 3494, 5406
4014, 3688, 3602, 3775, 2137
4015, 5459, 5394, 3602, 3688
4016, 3690, 3603, 3776, 4162
4017, 5409, 3615, 2682, 3571
4018, 3631, 2174, 3703, 3961
4019, 3710, 2575, 4015, 3874
4020, 5458, 3751, 2677, 3694
4021, 3607, 3751, 5458, 3475
4022, 3833, 3709, 3938, 2728
4023, 3609, 5303, 3641, 3639
4024, 2121, 3701, 3611, 3693
4025, 3756, 3612, 5464, 3830
4026, 3613, 2123, 3682, 5449
4027, 5399, 3478, 2110, 3403
4028, 3684, 3615, 2683, 5489
4029, 3827, 3621, 5463, 3760
4030, 3825, 3764, 3622, 5398
4031, 3690, 5566, 2691, 3603
4032, 2253, 3706, 3624, 5392
4033, 5518, 4324, 3624, 2235
4034, 2126, 3628, 3659, 3625
4035, 3625, 3659, 2148, 5505
4036, 3626, 3649, 3657, 5417
4037, 2556, 3658, 3627, 5407
4038, 5456, 3913, 5587, 5548
4039, 3733, 3659, 3628, 4134
4040, 3765, 3819, 3629, 3694
4041, 3484, 3629, 2698, 3678
4042, 2499, 3814, 3630, 5436
4043, 3703, 4615, 3916, 3961
4044, 2174, 3445, 3637, 3703
4045, 5439, 3493, 3316, 2639
4046, 3638, 3201, 2681, 3581
4047, 2560, 3796, 3639, 3641
4048, 3640, 2341, 3797, 5343
4049, 3373, 3640, 5343, 2344
4050, 3641, 3844, 5208, 2560
4051, 3845, 5342, 4288, 3642
4052, 2341, 3640, 3642, 4288
4053, 3790, 5423, 3827, 5469
4054, 3616, 3644, 5443, 2689
4055, 2464, 3784, 3747, 5381
4056, 5451, 2446, 3496, 3576
4057, 5509, 3647, 3751, 5510
4058, 5374, 3796, 3809, 5407
4059, 5407, 3627, 3648, 5374
4060, 3810, 2344, 5343, 5369
4061, 2345, 3657, 3649, 3810
4062, 5391, 3785, 5436, 3651
4063, 5511, 3811, 3653, 2195
4064, 2230, 5471, 3653, 3811
4065, 5596, 3654, 3890, 2444
4066, 3812, 3655, 3888, 3995
4067, 3575, 3655, 5546, 2677
4068, 3656, 3122, 3126, 2428
4069, 3851, 3817, 2346, 2373
4070, 3657, 3851, 3741, 5417
4071, 3852, 3816, 2555, 4130
4072, 2594, 3627, 3658, 3742
4073, 2327, 5445, 3662, 3815
4074, 3719, 3664, 5473, 2463
4075, 2720, 3667, 3568, 5404
4076, 3680, 3668, 3729, 2125
4077, 3804, 3670, 2671, 3907
4078, 2214, 3838, 5415, 3671
4079, 5415, 3838, 3839, 5483
4080, 3753, 5304, 5387, 2501
4081, 3672, 5310, 2466, 5276
4082, 3673, 3455, 3754, 5496
4083, 3823, 3673, 5496, 2327
4084, 2087, 3309, 3674, 5350
4085, 5366, 3676, 2095, 3228
4086, 3676, 5366, 5422, 2116
4087, 3677, 3482, 5528, 3623
4088, 3734, 3679, 2396, 3843
4089, 3680, 3574, 2104, 3633
4090, 2145, 3976, 3755, 5449
4091, 3834, 3685, 4030, 3964
4092, 3786, 2599, 3423, 2598
4093, 5515, 3687, 5611, 2688
4094, 3622, 3689, 2118, 3481
4095, 4109, 3763, 2669, 5645
4096, 5365, 3558, 2091, 3351
4097, 3465, 3566, 3691, 5365
4098, 2717, 3692, 3559, 5359
4099, 3695, 3766, 5244, 3708
4100, 2285, 3414, 3695, 3708
4101, 3806, 3696, 2309, 5519
4102, 3800, 3697, 3875, 2664
4103, 2686, 5491, 3697, 3800
4104, 5589, 3968, 3863, 3987
4105, 3864, 2672, 3967, 3700
4106, 2694, 5507, 3700, 3967
4107, 3714, 3701, 3808, 2144
4108, 3611, 3701, 3714, 2122
4109, 3842, 3779, 4055, 2133
4110, 3637, 2175, 4615, 3703
4111, 3704, 3560, 3801, 2210
4112, 3832, 3704, 2210, 5484
4113, 3565, 3705, 2121, 3781
4114, 2235, 3624, 3706, 3818
4115, 3706, 2253, 3722, 3895
4116, 2254, 3722, 3780, 3923
4117, 3938, 3709, 5309, 2727
4118, 3710, 2523, 3517, 3548
4119, 3770, 3711, 2268, 3777
4120, 3771, 3712, 2485, 3778
4121, 4040, 3772, 2144, 3940
4122, 3774, 2684, 3534, 4393
4123, 4163, 5512, 4057, 5219
4124, 2670, 4059, 3776, 5594
4125, 3718, 3829, 5373, 3554
4126, 3720, 5510, 3751, 3607
4127, 3782, 3842, 3767, 3758
4128, 3842, 2132, 3634, 3779
4129, 5500, 3604, 3615, 3684
4130, 3895, 3722, 2254, 3973
4131, 5401, 3723, 5352, 3579
4132, 2504, 3592, 3724, 3794
4133, 2168, 3788, 3870, 2147
4134, 3727, 2169, 3508, 3743
4135, 3831, 3912, 2124, 3477
4136, 3909, 3972, 3819, 2676
4137, 3707, 3596, 3732, 5513
4138, 3679, 3734, 4042, 2427
4139, 2379, 3707, 3735, 3795
4140, 3922, 3735, 3966, 2426
4141, 5225, 2559, 2767, 2788
4142, 4359, 2538, 4525, 4398
4143, 5226, 2342, 2755, 2801
4144, 4360, 2323, 4524, 4397
4145, 3873, 3741, 5525, 5526
4146, 5424, 5417, 3741, 3873
4147, 3742, 2593, 3869, 3728
4148, 3853, 5477, 3942, 5240
4149, 2357, 3503, 3855, 5536
4150, 3645, 3783, 3856, 2231
4151, 3919, 3746, 3783, 2230
4152, 3918, 3747, 3784, 5498
4153, 2134, 3900, 3749, 3858
4154, 3901, 3750, 3967, 2672
4155, 5304, 2466, 5310, 3859
4156, 5488, 2146, 5530, 3831
4157, 5543, 4118, 2674, 3756
4158, 5239, 3757, 3860, 3934
4159, 2111, 3466, 3758, 3767
4160, 3899, 3620, 2689, 5443
4161, 2667, 4132, 3759, 3826
4162, 5469, 3911, 3898, 3790
4163, 3876, 3468, 3761, 5563
4164, 3762, 3862, 5544, 3931
4165, 2119, 3471, 3762, 3931
4166, 3927, 3824, 2668, 4031
4167, 5566, 3763, 2690, 3623
4168, 2139, 4115, 3764, 3825
4169, 3819, 3765, 3812, 2676
4170, 5482, 3840, 5244, 3766
4171, 2133, 3863, 3767, 3842
4172, 3768, 2695, 3757, 5239
4173, 2673, 3986, 3768, 5239
4174, 3777, 2268, 5373, 2267
4175, 3778, 2485, 5382, 2486
4176, 5474, 3772, 4040, 4143
4177, 2662, 5506, 3773, 5533
4178, 4393, 3799, 4176, 3774
4179, 5466, 3775, 3602, 5414
4180, 3904, 3777, 2267, 4358
4181, 3905, 3778, 2486, 4356
4182, 4055, 3987, 3863, 2133
4183, 2284, 3780, 3708, 5244
4184, 3783, 3645, 5471, 2230
4185, 3646, 2445, 5498, 3784
4186, 5498, 3889, 5531, 3918
4187, 3859, 3960, 5391, 2500
4188, 3785, 3943, 3867, 5453
4189, 3871, 3788, 3945, 4010
4190, 3872, 3789, 3946, 4008
4191, 3898, 3911, 2139, 3825
4192, 3898, 3825, 5398, 2117
4193, 5478, 2667, 3826, 3899
4194, 3620, 3899, 3826, 5516
4195, 4092, 3878, 2524, 4107
4196, 5628, 3998, 3875, 5575
4197, 2363, 3802, 3880, 3994
4198, 3809, 3836, 3920, 3893
4199, 2557, 3639, 3796, 5374
4200, 3921, 3810, 5369, 3837
4201, 5534, 3835, 2655, 3798
4202, 2685, 5539, 3799, 4393
4203, 3879, 3800, 2664, 4093
4204, 3802, 4024, 3855, 2362
4205, 2135, 3952, 3908, 3803
4206, 3881, 3805, 2579, 3948
4207, 5519, 2309, 3823, 3897
4208, 2143, 3841, 3808, 3885
4209, 2556, 5407, 3809, 3893
4210, 3813, 2445, 3654, 5596
4211, 5550, 4180, 5499, 3854
4212, 3921, 3894, 2345, 3810
4213, 2373, 2346, 4310, 4131
4214, 3896, 3951, 4006, 2216
4215, 3629, 3819, 3972, 2698
4216, 3846, 2483, 2764, 2791
4217, 3847, 2270, 2752, 2804
4218, 2668, 3824, 3763, 4109
4219, 3621, 3827, 5423, 2116
4220, 3760, 2138, 5469, 3827
4221, 4169, 3883, 3937, 4096
4222, 4515, 5425, 3828, 4220
4223, 4168, 2249, 3936, 2248
4224, 2267, 5373, 3829, 4514
4225, 3756, 3830, 5537, 5543
4226, 3833, 2728, 3337, 2705
4227, 4000, 5534, 2620, 4062
4228, 2561, 3957, 3920, 4182
4229, 3797, 2341, 5403, 3837
4230, 3958, 3921, 3837, 2340
4231, 2215, 3839, 3838, 5416
4232, 5415, 2210, 3801, 3671
4233, 3839, 2215, 3999, 4061
4234, 2284, 5244, 3840, 5243
4235, 2144, 3808, 3841, 3940
4236, 4091, 3941, 2397, 4090
4237, 2538, 4252, 5208, 3844
4238, 5295, 3845, 3642, 3610
4239, 5435, 4021, 3848, 2190
4240, 4010, 2189, 4021, 5435
4241, 2414, 5406, 4022, 3849
4242, 4008, 2415, 4022, 5406
4243, 4009, 5538, 2640, 3868
4244, 2640, 5538, 4023, 5468
4245, 3741, 3851, 2373, 5525
4246, 3852, 2593, 3742, 3658
4247, 5240, 3942, 4028, 2433
4248, 2432, 3500, 3853, 5240
4249, 3744, 3660, 3854, 5499
4250, 3968, 2112, 3699, 3863
4251, 3377, 5387, 2500, 5213
4252, 5652, 3933, 3861, 5612
4253, 2665, 5641, 5597, 5549
4254, 3858, 3968, 5589, 2134
4255, 3768, 3986, 5680, 3864
4256, 2119, 3931, 4047, 3865
4257, 3985, 3866, 2142, 4053
4258, 3705, 3866, 3885, 2121
4259, 3926, 3891, 5453, 3867
4260, 4009, 3868, 3944, 4012
4261, 3497, 3868, 2640, 5438
4262, 3869, 2593, 4067, 2613
4263, 5435, 5434, 3871, 4010
4264, 3872, 4008, 5406, 3494
4265, 5526, 5525, 5562, 3990
4266, 3793, 5575, 3875, 3697
4267, 3876, 2665, 5549, 2687
4268, 4016, 4014, 3947, 5501
4269, 3877, 5375, 5317, 3752
4270, 2524, 3878, 3792, 3974
4271, 2505, 3794, 3878, 4092
4272, 3879, 2663, 5539, 3726
4273, 3994, 3880, 2380, 4049
4274, 4239, 2542, 5230, 5470
4275, 5502, 5232, 5461, 4219
4276, 4477, 4514, 4219, 5461
4277, 4515, 4220, 2487, 4476
4278, 5484, 5483, 3884, 4445
4279, 4445, 5591, 2176, 3906
4280, 3886, 3949, 4097, 3936
4281, 3919, 3886, 3936, 2249
4282, 2196, 3887, 5511, 3738
4283, 5586, 2676, 3812, 3995
4284, 3889, 3950, 4096, 5531
4285, 2408, 3890, 3739, 3980
4286, 2444, 3890, 2408, 3997
4287, 4102, 3891, 3926, 5520
4288, 3814, 2499, 3984, 2498
4289, 3892, 3745, 2356, 3991
4290, 3893, 3920, 3957, 3983
4291, 3957, 4099, 5564, 3983
4292, 3894, 3921, 3958, 4100
4293, 2235, 3951, 3896, 5518
4294, 3821, 3771, 2482, 3989
4295, 3822, 3770, 2271, 3988
4296, 3959, 5545, 2310, 5608
4297, 5475, 3910, 5524, 5478
4298, 4121, 4044, 3952, 3900
4299, 2671, 3750, 3901, 3953
4300, 3730, 2698, 3972, 3902
4301, 3902, 3972, 3909, 3971
4302, 3935, 3903, 4176, 5569
4303, 4037, 4089, 3903, 3935
4304, 3954, 4278, 4325, 4599
4305, 2670, 3804, 3907, 3993
4306, 2136, 3803, 3908, 3992
4307, 3955, 3909, 2676, 5586
4308, 5523, 3910, 5475, 3791
4309, 3824, 3927, 3910, 5523
4310, 2138, 3928, 3911, 5469
4311, 3733, 5548, 5587, 2147
4312, 2124, 3912, 3913, 3729
4313, 3729, 3913, 5456, 2125
4314, 2292, 4078, 3914, 4087
4315, 2328, 5552, 3915, 3815
4316, 2154, 3702, 3916, 5557
4317, 4153, 3962, 2433, 4028
4318, 2575, 3606, 3917, 5411
4319, 3937, 5473, 3918, 5531
4320, 3965, 3922, 2426, 4088
4321, 3977, 3976, 4052, 5555
4322, 4016, 4020, 2468, 4014
4323, 3984, 3891, 4102, 5561
4324, 3927, 5573, 5524, 3910
4325, 3928, 2138, 5553, 4032
4326, 4228, 4317, 4112, 2160
4327, 3929, 4188, 4113, 4033
4328, 3930, 4189, 4114, 4034
4329, 3970, 4047, 2141, 5565
4330, 3932, 2140, 4035, 4116
4331, 4196, 5565, 2141, 5640
4332, 4084, 5659, 4133, 5708
4333, 3933, 5659, 5641, 3861
4334, 5619, 5604, 4036, 5651
4335, 4037, 3935, 4062, 2620
4336, 2248, 3936, 4097, 4327
4337, 2655, 3835, 3939, 5487
4338, 3942, 5540, 5583, 4028
4339, 2143, 3885, 3866, 3985
4340, 5376, 5375, 4014, 2468
4341, 2468, 3867, 3943, 5376
4342, 3944, 2613, 5568, 4012
4343, 4010, 3945, 4013, 2189
4344, 3946, 5517, 4011, 4008
4345, 5501, 3947, 2505, 4151
4346, 3948, 2580, 4277, 3881
4347, 3948, 2579, 3925, 5400
4348, 3949, 2229, 5584, 4002
4349, 4097, 3949, 4002, 4308
4350, 5649, 4001, 4096, 3950
4351, 4043, 4060, 4129, 5454
4352, 2236, 4007, 4006, 3951
4353, 2272, 4358, 4283, 4357
4354, 4282, 2481, 4356, 4399
4355, 4104, 2154, 5557, 5603
4356, 3977, 4139, 2146, 3924
4357, 2561, 4017, 4099, 3957
4358, 2340, 4018, 5504, 3958
4359, 3982, 3894, 4100, 4004
4360, 3959, 3806, 5519, 5545
4361, 3960, 2467, 5376, 3943
4362, 5455, 3961, 2153, 3385
4363, 2397, 3843, 3962, 4090
4364, 3962, 3820, 2432, 2433
4365, 3963, 4123, 5411, 3917
4366, 4239, 4276, 4387, 2542
4367, 4154, 4089, 4037, 3964
4368, 2380, 3922, 3965, 4049
4369, 4042, 3966, 5513, 2427
4370, 3968, 3858, 5465, 2112
4371, 2599, 4038, 4050, 3969
4372, 4086, 3969, 4050, 2600
4373, 3973, 2254, 3975, 4144
4374, 2283, 4371, 4051, 5493
4375, 3974, 2574, 4019, 2524
4376, 2255, 4144, 3975, 5494
4377, 2145, 5474, 4143, 5529
4378, 4204, 4295, 4258, 5606
4379, 5555, 2167, 4139, 3977
4380, 4029, 3978, 4024, 5660
4381, 5588, 4027, 3740, 3979
4382, 2415, 4026, 3980, 4022
4383, 2189, 5554, 3981, 4021
4384, 2196, 3738, 3981, 4025
4385, 2346, 3817, 3982, 4101
4386, 5564, 4099, 2562, 4003
4387, 3816, 3983, 5564, 2555
4388, 4177, 4126, 2630, 4122
4389, 4177, 5680, 3986, 4126
4390, 2134, 4178, 4121, 3900
4391, 3988, 2271, 4034, 4082
4392, 3989, 2482, 4033, 4081
4393, 4081, 4033, 5305, 5302
4394, 4075, 2168, 5585, 3956
4395, 3990, 4140, 4076, 5517
4396, 2328, 3892, 3991, 4073
4397, 3991, 2356, 5637, 4066
4398, 3996, 4135, 4071, 5584
4399, 2229, 3887, 3996, 5584
4400, 4072, 3997, 4136, 2443
4401, 3875, 3998, 5627, 2664
4402, 4236, 2209, 4299, 5610
4403, 4366, 2621, 4300, 4381
4404, 4307, 4326, 4072, 2443
4405, 4096, 4001, 2462, 4169
4406, 5228, 2554, 4098, 4003
4407, 4101, 3982, 4004, 5527
4408, 4484, 4103, 4181, 5618
4409, 2217, 4006, 4007, 4164
4410, 4079, 4007, 2236, 3973
4411, 3979, 4023, 5538, 5588
4412, 2415, 4008, 4011, 4166
4413, 2641, 4009, 4012, 4165
4414, 5568, 2613, 4074, 5620
4415, 4167, 4204, 5606, 2188
4416, 3877, 3947, 4014, 5375
4417, 3974, 4015, 4048, 2574
4418, 4151, 2505, 4092, 5541
4419, 4099, 4017, 4337, 2562
4420, 4185, 4338, 5504, 4018
4421, 5504, 2339, 4100, 3958
4422, 4235, 4186, 4019, 2574
4423, 4102, 5520, 2469, 4234
4424, 3802, 2363, 5660, 4024
4425, 5554, 4314, 4025, 3981
4426, 2408, 3980, 4026, 4065
4427, 4312, 2641, 4165, 2642
4428, 4312, 2642, 4243, 4064
4429, 4187, 5583, 4108, 4511
4430, 3978, 4029, 5637, 2356
4431, 4110, 5624, 4345, 5671
4432, 4115, 4035, 2140, 3764
4433, 2161, 4323, 5640, 4116
4434, 4118, 4036, 5604, 2674
4435, 4322, 4384, 5681, 5651
4436, 3939, 2654, 4095, 5487
4437, 2654, 3939, 4039, 4366
4438, 2164, 4161, 4041, 4119
4439, 2234, 5460, 4324, 5454
4440, 4122, 3901, 2672, 4177
4441, 2630, 4159, 4045, 4122
4442, 5565, 4157, 4046, 3970
4443, 4046, 4157, 4053, 2142
4444, 4047, 3931, 5544, 2141
4445, 4049, 2381, 4142, 3994
4446, 5529, 4052, 3976, 2145
4447, 4273, 4125, 2163, 5592
4448, 2673, 3934, 5619, 4117
4449, 4516, 4334, 2630, 4126
4450, 5603, 5557, 4599, 4325
4451, 4156, 4056, 2156, 4197
4452, 5219, 4057, 4127, 4173
4453, 5512, 4163, 3775, 5466
4454, 4058, 2629, 4155, 2628
4455, 5218, 4059, 4128, 4172
4456, 4162, 3776, 4059, 5218
4457, 3884, 4061, 2209, 5590
4458, 4063, 2196, 4025, 4468
4459, 5674, 4071, 4135, 4532
4460, 4137, 2329, 4244, 4073
4461, 4130, 2555, 4098, 4311
4462, 2612, 4074, 4138, 4416
4463, 4310, 2346, 4101, 2347
4464, 4140, 4417, 2390, 4076
4465, 3971, 3955, 2675, 5537
4466, 4160, 5586, 3995, 4069
4467, 4308, 4071, 5674, 2228
4468, 4202, 5568, 5620, 4256
4469, 2167, 4204, 5578, 4139
4470, 4203, 4076, 2390, 4257
4471, 4141, 4078, 2292, 5579
4472, 5548, 3733, 4134, 5456
4473, 4210, 2520, 2765, 2790
4474, 4211, 2306, 2753, 2803
4475, 4073, 4244, 5552, 2328
4476, 5628, 5641, 5659, 4084
4477, 4213, 4222, 2621, 4146
4478, 4148, 4087, 5608, 2310
4479, 4088, 2426, 3941, 4091
4480, 4124, 2425, 5769, 4426
4481, 4090, 3962, 4153, 5670
4482, 2663, 3879, 4093, 4213
4483, 4093, 2664, 5627, 4085
4484, 2506, 4245, 4094, 5521
4485, 4207, 4095, 2654, 4301
4486, 2600, 4050, 4095, 4207
4487, 4003, 4098, 2555, 5564
4488, 4004, 4100, 2339, 4232
4489, 4068, 2373, 4131, 2372
4490, 4005, 4103, 5550, 2498
4491, 4178, 5603, 5676, 4121
4492, 3987, 4055, 4104, 4178
4493, 4183, 4105, 2537, 4254
4494, 4107, 2524, 4019, 5567
4495, 4170, 5247, 5645, 2669
4496, 5645, 5247, 4214, 4109
4497, 2625, 4225, 4392, 5574
4498, 4031, 5624, 5573, 3927
4499, 4111, 2137, 4171, 5248
4500, 4032, 4112, 4317, 3928
4501, 4113, 2519, 5305, 4033
4502, 2304, 5442, 4114, 4189
4503, 4114, 2305, 5306, 4034
4504, 4228, 4115, 2139, 4317
4505, 3932, 4116, 5640, 2141
4506, 2143, 3985, 4175, 4119
4507, 4174, 4120, 2165, 4199
4508, 5529, 4143, 5547, 2166
4509, 2155, 4044, 4121, 5676
4510, 5680, 4177, 2672, 3864
4511, 4123, 3963, 2542, 4387
4512, 4264, 4328, 2543, 4761
4513, 4124, 2381, 4049, 3965
4514, 4119, 4175, 5581, 2164
4515, 4126, 3986, 4054, 4516
4516, 4171, 4163, 5219, 2158
4517, 4170, 4162, 5218, 2627
4518, 4129, 3329, 3222, 5454
4519, 4130, 4067, 2593, 3852
4520, 4225, 4132, 2667, 4392
4521, 5706, 5707, 3933, 5652
4522, 5456, 4134, 5428, 2125
4523, 4532, 4488, 2228, 5674
4524, 4136, 4065, 4467, 2407
4525, 4137, 4066, 2355, 5212
4526, 4138, 4067, 5615, 2592
4527, 2146, 4139, 3956, 5530
4528, 4140, 4068, 2372, 4417
4529, 4365, 2390, 4417, 5702
4530, 5243, 4141, 5532, 2283
4531, 4306, 5579, 4152, 4379
4532, 4321, 4142, 2381, 4382
4533, 4309, 4144, 2255, 4380
4534, 4148, 4145, 4208, 2311
4535, 2310, 4083, 4145, 4148
4536, 5302, 5305, 4285, 2520
4537, 2623, 4147, 4084, 5708
4538, 2293, 4152, 4194, 4342
4539, 5571, 4149, 4275, 4259
4540, 5503, 4238, 5508, 4192
4541, 4150, 4091, 4090, 5670
4542, 5721, 4934, 2398, 5687
4543, 4092, 4107, 5542, 5541
4544, 5521, 4151, 5541, 2506
4545, 5631, 4087, 4148, 2311
4546, 4154, 2619, 3563, 2662
4547, 4230, 4155, 4297, 2647
4548, 4156, 4296, 5623, 4056
4549, 4191, 4157, 2162, 4354
4550, 4240, 4158, 4278, 2176
4551, 4158, 4240, 4197, 2156
4552, 2629, 4045, 4159, 4198
4553, 2633, 4205, 4160, 4069
4554, 2165, 4041, 4161, 4199
4555, 2669, 3690, 4162, 4170
4556, 2137, 3775, 4163, 4171
4557, 4190, 2217, 4164, 4201
4558, 4313, 4166, 2416, 4430
4559, 4013, 4167, 5554, 2189
4560, 5232, 5502, 5551, 4378
4561, 4169, 4377, 5231, 3883
4562, 5248, 4215, 5553, 4111
4563, 4349, 5704, 4271, 5732
4564, 2627, 5218, 4172, 5704
4565, 2158, 5219, 4173, 4350
4566, 4174, 4298, 4329, 2166
4567, 5569, 4176, 3799, 5570
4568, 4003, 2562, 4261, 5228
4569, 5550, 4103, 5601, 4180
4570, 4233, 5601, 2497, 5663
4571, 5561, 4102, 4234, 4181
4572, 4289, 3836, 2560, 5208
4573, 5446, 4289, 5208, 4252
4574, 4337, 4183, 4440, 5558
4575, 4288, 4253, 4184, 2341
4576, 4338, 2321, 4439, 4262
4577, 2434, 4775, 5636, 4187
4578, 5583, 4187, 5636, 4028
4579, 4246, 2481, 4282, 4414
4580, 4113, 4188, 2518, 5441
4581, 4236, 2208, 4319, 2209
4582, 4191, 4354, 4274, 4237
4583, 4276, 4239, 5508, 2581
4584, 4192, 4277, 2580, 5503
4585, 2311, 4342, 4194, 5631
4586, 4195, 5687, 2398, 4150
4587, 4200, 4079, 2237, 4251
4588, 2218, 5644, 4699, 4269
4589, 2625, 4226, 4206, 4225
4590, 4206, 2624, 5706, 4070
4591, 4221, 4208, 4244, 2329
4592, 2160, 4229, 4209, 4228
4593, 4094, 4245, 4212, 5522
4594, 4222, 4213, 4093, 4085
4595, 4224, 4214, 5247, 5251
4596, 2626, 4031, 4214, 4224
4597, 4223, 4215, 5248, 5250
4598, 4216, 4291, 2537, 4284
4599, 4216, 4284, 4248, 2519
4600, 4217, 4292, 2322, 4286
4601, 4217, 4286, 4249, 2305
4602, 5726, 5216, 4218, 4077
4603, 2266, 4400, 4477, 5461
4604, 3882, 4168, 5502, 4219
4605, 4399, 4476, 2487, 4529
4606, 4222, 4085, 4300, 2621
4607, 4226, 4412, 4347, 4268
4608, 4260, 4227, 4269, 2207
4609, 4229, 4413, 4348, 4270
4610, 4272, 2178, 4388, 2179
4611, 4261, 2562, 4337, 5558
4612, 4338, 4262, 2339, 5504
4613, 4179, 4232, 5227, 2338
4614, 4263, 4233, 5663, 4406
4615, 4233, 4263, 2452, 4603
4616, 2469, 5522, 4418, 4234
4617, 4181, 4234, 2470, 5618
4618, 4328, 4264, 2574, 4048
4619, 4186, 4235, 2573, 4535
4620, 4299, 2209, 4061, 3999
4621, 2185, 5629, 4353, 4401
4622, 2581, 5508, 4238, 5571
4623, 5470, 5230, 4277, 4192
4624, 5470, 4192, 5508, 4239
4625, 4158, 2155, 4325, 4278
4626, 2645, 4497, 4241, 4279
4627, 2642, 5700, 4331, 4243
4628, 4315, 4243, 4331, 4383
4629, 5542, 4355, 2506, 5541
4630, 2518, 4414, 2517, 4362
4631, 4247, 2272, 4357, 4415
4632, 4363, 2304, 4415, 2303
4633, 4285, 4248, 4359, 4398
4634, 4287, 4249, 4360, 4397
4635, 4250, 4374, 4318, 2355
4636, 2218, 4200, 4251, 5644
4637, 4251, 2237, 4290, 4361
4638, 4254, 5535, 4520, 2536
4639, 4183, 4254, 2536, 4440
4640, 4255, 4363, 4521, 2321
4641, 4185, 4255, 2321, 4338
4642, 5678, 5677, 4293, 4367
4643, 2416, 4203, 4257, 4303
4644, 4386, 4329, 5669, 2187
4645, 5606, 4258, 5668, 4304
4646, 4405, 5572, 4482, 2602
4647, 4494, 4352, 5693, 4260
4648, 2208, 4227, 4260, 5693
4649, 4339, 5697, 5663, 2497
4650, 4761, 4689, 5209, 4264
4651, 4265, 4409, 4342, 2311
4652, 5718, 4411, 5671, 4345
4653, 4267, 2626, 4224, 5737
4654, 4270, 4579, 4323, 2161
4655, 4230, 4271, 5704, 4172
4656, 4333, 4280, 2164, 5581
4657, 4273, 4333, 5581, 4125
4658, 5642, 4274, 4354, 2183
4659, 4259, 4275, 2601, 5572
4660, 4387, 2543, 4328, 4123
4661, 2185, 4242, 4280, 4333
4662, 4281, 4355, 4435, 4560
4663, 5650, 4560, 4537, 4495
4664, 2480, 4282, 4399, 4529
4665, 4414, 4282, 2480, 4395
4666, 2273, 4283, 4400, 4531
4667, 4357, 4283, 2273, 4396
4668, 4291, 4216, 5441, 5450
4669, 4292, 4217, 5442, 5472
4670, 4287, 2306, 5294, 5306
4671, 2354, 4318, 4374, 4561
4672, 4309, 4290, 2237, 4144
4673, 4303, 4368, 4620, 2417
4674, 4052, 5556, 4295, 5555
4675, 4329, 4386, 5556, 2166
4676, 4336, 4352, 2177, 4434
4677, 4297, 2646, 4351, 2647
4678, 4340, 4298, 2186, 4436
4679, 5669, 4329, 4298, 4340
4680, 4366, 4039, 5616, 2621
4681, 2601, 4316, 4372, 4450
4682, 4331, 5700, 4302, 2643
4683, 4370, 4304, 4420, 4454
4684, 4594, 4682, 4636, 2256
4685, 4379, 4152, 2293, 5685
4686, 5615, 4311, 5665, 5695
4687, 2461, 5625, 4307, 4376
4688, 5613, 2247, 5598, 4327
4689, 4098, 2554, 5665, 4311
4690, 2641, 4312, 4027, 5588
4691, 4430, 5599, 4467, 4313
4692, 2188, 4370, 4431, 4314
4693, 4468, 4431, 5639, 2197
4694, 4322, 2632, 4383, 4428
4695, 2632, 4205, 4315, 4383
4696, 4372, 4207, 4301, 2653
4697, 4336, 4434, 4390, 4319
4698, 5708, 4320, 4660, 2623
4699, 5725, 4320, 4133, 5707
4700, 5640, 4323, 2162, 4196
4701, 5676, 5603, 4325, 2155
4702, 4797, 4378, 2247, 5607
4703, 4386, 2187, 5668, 4258
4704, 4330, 4385, 5576, 4381
4705, 4147, 4330, 2622, 3998
4706, 2592, 5615, 5695, 4403
4707, 5629, 4273, 5592, 4353
4708, 4457, 4446, 4334, 4516
4709, 4335, 2581, 5571, 4259
4710, 4484, 2497, 5601, 4103
4711, 5699, 4735, 2453, 5664
4712, 4420, 2187, 5669, 4451
4713, 4221, 2329, 5684, 4408
4714, 2330, 4449, 4341, 4408
4715, 5250, 2158, 4350, 5622
4716, 2179, 4504, 4343, 5622
4717, 2160, 4470, 4413, 4229
4718, 2160, 4112, 4344, 4470
4719, 4471, 4412, 4226, 2625
4720, 4349, 5251, 2627, 5704
4721, 2648, 4502, 4683, 4346
4722, 2650, 4443, 4347, 4412
4723, 5667, 4348, 4413, 2181
4724, 4433, 4351, 4496, 2607
4725, 2207, 4432, 4494, 4260
4726, 2178, 4296, 4352, 4494
4727, 4401, 4353, 2184, 4509
4728, 2162, 4323, 4716, 4354
4729, 2525, 4435, 4355, 5542
4730, 4415, 4357, 4396, 2303
4731, 4358, 4477, 4400, 4283
4732, 4525, 2538, 3844, 3736
4733, 4524, 2323, 5342, 3737
4734, 2219, 4655, 4361, 4486
4735, 4362, 2517, 4520, 5535
4736, 5450, 4362, 5535, 4291
4737, 2592, 4464, 4416, 4138
4738, 4416, 4464, 4442, 4364
4739, 2372, 4463, 5702, 4417
4740, 5702, 4463, 5705, 4365
4741, 2611, 4367, 4293, 5741
4742, 4368, 4294, 4441, 2389
4743, 2417, 4620, 4563, 4518
4744, 4455, 4369, 4419, 4459
4745, 4369, 4455, 5599, 4430
4746, 4431, 4370, 4454, 5639
4747, 4635, 4380, 2255, 4051
4748, 4450, 4372, 2653, 4510
4749, 4456, 4373, 4421, 4458
4750, 5212, 4373, 4456, 5684
4751, 2364, 4374, 4250, 4427
4752, 4561, 4374, 2364, 4663
4753, 2247, 5613, 5673, 4375
4754, 4766, 4782, 4423, 4489
4755, 5560, 4697, 4796, 5600
4756, 4697, 2487, 4220, 5231
4757, 4696, 2265, 4626, 2266
4758, 5232, 4696, 2266, 5461
4759, 4491, 5685, 4424, 4534
4760, 2294, 4554, 4424, 4490
4761, 4380, 4635, 4594, 2256
4762, 4619, 4559, 2238, 4425
4763, 2653, 4301, 4381, 5576
4764, 5802, 4427, 2382, 4667
4765, 2644, 5731, 4428, 4665
4766, 5736, 4462, 4446, 4457
4767, 2631, 5681, 4384, 4457
4768, 4350, 4272, 2179, 5622
4769, 2209, 4319, 4390, 5590
4770, 4436, 4391, 4498, 2199
4771, 2186, 4242, 4391, 4436
4772, 5524, 4392, 2667, 5478
4773, 4536, 4394, 2507, 5650
4774, 4234, 4418, 5617, 2470
4775, 2517, 4414, 4395, 5217
4776, 4481, 2324, 2754, 2802
4777, 4480, 2539, 2766, 2789
4778, 5716, 5705, 4463, 4402
4779, 2372, 4332, 4402, 4463
4780, 2543, 4276, 4404, 4794
4781, 2602, 4608, 4628, 4405
4782, 2582, 4335, 4405, 4628
4783, 2470, 4572, 4610, 5618
4784, 4413, 4470, 5654, 2181
4785, 4412, 4471, 5672, 2650
4786, 4110, 4471, 2625, 5574
4787, 2592, 4403, 5679, 4464
4788, 4420, 4451, 2198, 4454
4789, 4422, 4789, 4487, 4375
4790, 4533, 2443, 4136, 2407
4791, 2442, 4720, 4782, 4766
4792, 4490, 2293, 4342, 4409
4793, 4591, 4426, 5805, 4605
4794, 4428, 4383, 2643, 4665
4795, 4665, 2643, 4367, 2611
4796, 2653, 5576, 4429, 4510
4797, 4503, 4658, 5724, 4448
4798, 2606, 4447, 4501, 5779
4799, 5683, 4536, 4553, 4572
4800, 4435, 2525, 4492, 2526
4801, 2526, 4537, 4560, 4435
4802, 2198, 4451, 4506, 4600
4803, 4496, 2608, 4675, 2607
4804, 4808, 4498, 5746, 2200
4805, 4461, 4439, 4466, 2320
4806, 4440, 2536, 4465, 5605
4807, 5605, 4465, 4677, 2535
4808, 4469, 4442, 4464, 5679
4809, 2651, 4347, 4443, 4499
4810, 5667, 4541, 5701, 4444
4811, 5701, 4541, 4718, 5753
4812, 4445, 3884, 5590, 5591
4813, 5804, 4502, 2606, 5779
4814, 5732, 4447, 2648, 4349
4815, 2206, 4642, 4684, 4504
4816, 5740, 2313, 5762, 4505
4817, 4341, 4449, 5739, 2312
4818, 4506, 4340, 4436, 2199
4819, 4662, 2371, 4728, 4823
4820, 4488, 4532, 4548, 4582
4821, 4548, 5639, 4454, 2198
4822, 5614, 5599, 4455, 2406
4823, 4456, 2330, 4408, 5684
4824, 5731, 5736, 4457, 4384
4825, 4517, 2353, 4791, 4562
4826, 2330, 4456, 4458, 5754
4827, 4518, 2418, 5116, 4564
4828, 2406, 4455, 4459, 4653
4829, 2535, 4551, 4460, 5605
4830, 5228, 4261, 2563, 4543
4831, 4552, 4461, 2320, 5658
4832, 2338, 5227, 4461, 4552
4833, 2645, 4446, 4462, 4519
4834, 5705, 5716, 4622, 4441
4835, 2591, 5679, 4403, 4479
4836, 4677, 4465, 4566, 5559
4837, 4567, 4678, 4466, 4521
4838, 4469, 4523, 5741, 4442
4839, 4470, 4344, 4410, 5654
4840, 4471, 4110, 5671, 5672
4841, 4526, 4472, 2180, 4684
4842, 5698, 4577, 2181, 5654
4843, 4473, 4614, 5719, 4411
4844, 4528, 4474, 2479, 4597
4845, 4475, 2273, 4531, 5602
4846, 4530, 4475, 2274, 4596
4847, 4515, 4476, 2486, 5425
4848, 4402, 4478, 2371, 5716
4849, 4483, 5633, 4547, 2544
4850, 4761, 4794, 2544, 4689
4851, 4484, 5618, 4610, 4407
4852, 4485, 4558, 5691, 4511
4853, 4849, 5675, 5242, 4851
4854, 2197, 5639, 4548, 4532
4855, 2407, 5614, 4549, 4533
4856, 4766, 4549, 4583, 2442
4857, 5063, 2460, 4905, 4850
4858, 4376, 4423, 4782, 5063
4859, 4490, 4409, 4493, 2294
4860, 5685, 4491, 5630, 4379
4861, 4278, 3954, 3906, 2176
4862, 4555, 4730, 2526, 4492
4863, 4595, 4493, 4505, 5762
4864, 2645, 4519, 4556, 4497
4865, 4539, 4499, 4576, 4592
4866, 4500, 4578, 4540, 5690
4867, 4500, 5690, 4444, 5701
4868, 4501, 4433, 2607, 4659
4869, 4683, 4641, 4527, 2649
4870, 4432, 2207, 5713, 4503
4871, 4526, 4684, 4642, 2205
4872, 4343, 4504, 4684, 2180
4873, 4600, 4506, 2199, 4643
4874, 4507, 4543, 4586, 4832
4875, 4587, 4508, 4544, 5609
4876, 4508, 4587, 4835, 2348
4877, 4545, 2184, 4274, 5642
4878, 4546, 2201, 4598, 2200
4879, 2652, 4539, 4592, 4513
4880, 4792, 4512, 4856, 2220
4881, 2602, 4482, 4513, 4592
4882, 4791, 4742, 2331, 4562
4883, 4620, 4522, 4648, 4563
4884, 4556, 2609, 4557, 4550
4885, 4530, 4567, 2303, 4396
4886, 5750, 2389, 4441, 4622
4887, 2644, 4665, 4621, 5759
4888, 5774, 2605, 5806, 4651
4889, 4566, 5217, 2516, 5559
4890, 4531, 4626, 4589, 5602
4891, 4617, 2294, 4493, 4595
4892, 4491, 4534, 5222, 2281
4893, 4553, 4536, 2508, 4616
4894, 2507, 4281, 4560, 5650
4895, 4537, 4624, 4573, 4495
4896, 2650, 5720, 4574, 4443
4897, 2652, 5635, 5661, 4539
4898, 4607, 4540, 4578, 5712
4899, 2183, 5643, 4540, 4607
4900, 4577, 4541, 5667, 2181
4901, 4718, 4541, 2204, 4846
4902, 2331, 4654, 4542, 4580
4903, 4586, 4543, 2563, 5657
4904, 4544, 4179, 2338, 5609
4905, 2183, 4607, 4612, 5642
4906, 4612, 4607, 5712, 2202
4907, 4438, 4546, 2200, 5746
4908, 4547, 5633, 4581, 4627
4909, 4582, 4548, 2198, 4600
4910, 4549, 5614, 2406, 4583
4911, 5655, 4601, 5656, 4584
4912, 2563, 4460, 4551, 5657
4913, 4640, 4602, 4552, 5658
4914, 2471, 4572, 4553, 4753
4915, 4617, 4708, 4554, 2294
4916, 4721, 5222, 4708, 4722
4917, 5666, 4647, 2572, 5703
4918, 5703, 4855, 4730, 5666
4919, 4556, 4519, 5798, 2609
4920, 2608, 4550, 4557, 4618
4921, 4611, 4558, 2453, 4670
4922, 4558, 4611, 4604, 5691
4923, 2239, 4680, 5709, 4779
4924, 4650, 4561, 4663, 4664
4925, 4458, 4517, 4562, 5754
4926, 4629, 4653, 4564, 2405
4927, 4565, 5759, 4621, 2610
4928, 4781, 2609, 5798, 4825
4929, 4677, 5559, 4723, 4630
4930, 2302, 4631, 4678, 4567
4931, 4790, 2388, 5751, 4829
4932, 2591, 4623, 4469, 5679
4933, 5848, 5832, 5831, 4902
4934, 4570, 4472, 4526, 5717
4935, 2604, 5745, 4614, 4571
4936, 5784, 4571, 4614, 4473
4937, 2471, 4593, 4610, 4572
4938, 5683, 4572, 2470, 5617
4939, 5729, 4573, 4624, 2527
4940, 4614, 5745, 5720, 5719
4941, 5745, 4538, 4574, 5720
4942, 4575, 4660, 4320, 5725
4943, 2603, 4608, 4576, 5696
4944, 2602, 4592, 4576, 4608
4945, 4570, 4577, 5698, 4472
4946, 2204, 4541, 4577, 4570
4947, 5690, 5647, 2182, 4444
4948, 2183, 4354, 4716, 5643
4949, 4580, 4542, 5739, 4449
4950, 4668, 4740, 4608, 2603
4951, 2583, 4719, 5662, 4627
4952, 4639, 2564, 4601, 5655
4953, 5653, 4678, 4631, 4585
4954, 2337, 4602, 4640, 4709
4955, 5657, 4551, 5656, 4601
4956, 4832, 4586, 2564, 4800
4957, 2338, 4552, 4602, 5609
4958, 4835, 4587, 2337, 4803
4959, 2202, 4613, 4588, 4612
4960, 2265, 4634, 4589, 4626
4961, 2488, 4633, 4590, 4625
4962, 2479, 4474, 4590, 4633
4963, 4407, 2496, 5715, 4339
4964, 4682, 4594, 4371, 4305
4965, 4632, 4595, 5762, 4679
4966, 4708, 4617, 2295, 4722
4967, 4596, 4688, 4645, 2302
4968, 4530, 4596, 2302, 4567
4969, 4644, 4597, 4687, 2515
4970, 2516, 4528, 4597, 4644
4971, 3916, 4615, 4599, 5557
4972, 4603, 2452, 4108, 2451
4973, 4698, 4604, 2435, 4771
4974, 2424, 5790, 4795, 4754
4975, 2424, 4712, 4605, 5790
4976, 2382, 4591, 4606, 4667
4977, 4669, 4734, 2203, 5753
4978, 4787, 4759, 2202, 5712
4979, 2435, 4604, 4611, 4700
4980, 4612, 4588, 4545, 5642
4981, 4646, 4613, 4715, 2224
4982, 5749, 2496, 4593, 4711
4983, 4673, 5734, 4616, 2508
4984, 4672, 4616, 5734, 2509
4985, 4738, 4675, 5812, 4784
4986, 4619, 4681, 5709, 4680
4987, 4620, 4368, 2389, 4522
4988, 4728, 2371, 4478, 2348
4989, 4727, 2591, 4479, 2553
4990, 4666, 2526, 4730, 4855
4991, 4625, 2487, 4697, 5560
4992, 4629, 2405, 4739, 4676
4993, 2516, 4644, 4723, 5559
4994, 4704, 4630, 4723, 5626
4995, 4631, 2302, 4645, 4703
4996, 4713, 2489, 5060, 4755
4997, 4714, 2264, 4757, 4634
4998, 2274, 4589, 4634, 4637
4999, 5686, 5632, 4694, 2257
5000, 4645, 4688, 4919, 2301
5001, 4639, 2534, 4710, 5714
5002, 4585, 2319, 4640, 5658
5003, 4527, 4748, 5842, 5784
5004, 4747, 4642, 4744, 4817
5005, 4686, 2199, 4498, 4808
5006, 4891, 4685, 2226, 5813
5007, 5626, 4723, 4644, 2515
5008, 2224, 4778, 4691, 4646
5009, 4647, 4693, 4726, 2572
5010, 2388, 4741, 4690, 4648
5011, 5763, 4563, 4648, 4690
5012, 4760, 4686, 4808, 4649
5013, 2200, 4598, 4649, 4808
5014, 2353, 4517, 4650, 5837
5015, 4751, 4651, 4702, 4912
5016, 4701, 5738, 4652, 2205
5017, 4750, 5767, 5738, 4701
5018, 5777, 4542, 4654, 5803
5019, 4692, 4654, 2331, 4742
5020, 5713, 4699, 4658, 4503
5021, 5630, 4656, 2282, 5580
5022, 4693, 4657, 5692, 4726
5023, 2544, 4547, 4657, 4693
5024, 5724, 4658, 4695, 2206
5025, 2207, 4269, 4699, 5713
5026, 4745, 4749, 4659, 2607
5027, 5779, 4501, 4659, 4705
5028, 2623, 4660, 5634, 4385
5029, 4661, 4727, 4815, 4822
5030, 4728, 4814, 4975, 4823
5031, 2364, 4732, 4812, 4663
5032, 2365, 4664, 4663, 4812
5033, 5837, 4650, 4664, 5840
5034, 2365, 4777, 5840, 4664
5035, 4666, 4855, 5730, 4868
5036, 4717, 4668, 2603, 5723
5037, 2583, 4740, 4668, 4798
5038, 4843, 4788, 5715, 4671
5039, 5046, 5005, 4973, 5127
5040, 5785, 5747, 4843, 4853
5041, 4672, 2509, 4774, 5766
5042, 4673, 2508, 4573, 5729
5043, 2589, 5874, 4674, 4737
5044, 2608, 4618, 5812, 4675
5045, 4676, 2441, 4720, 2442
5046, 2320, 4466, 4678, 5653
5047, 2313, 5778, 4679, 5762
5048, 4752, 2314, 5828, 4707
5049, 5709, 4681, 5686, 2257
5050, 4682, 2282, 5632, 4636
5051, 4267, 4683, 2649, 5718
5052, 4641, 4683, 4502, 5804
5053, 4687, 4638, 2478, 4920
5054, 4899, 5682, 4920, 4941
5055, 4688, 4637, 2275, 4919
5056, 4897, 2301, 4919, 4942
5057, 5621, 5209, 4689, 4647
5058, 2418, 5763, 4690, 4773
5059, 2545, 5692, 4657, 5662
5060, 4743, 2281, 5222, 4721
5061, 4701, 4747, 4817, 4750
5062, 4378, 4797, 4696, 5232
5063, 4377, 4796, 4697, 5231
5064, 4783, 4698, 4771, 2399
5065, 4745, 2607, 4675, 4738
5066, 4655, 4658, 4699, 5644
5067, 4700, 2436, 4746, 2435
5068, 5767, 4750, 4939, 2221
5069, 2605, 5842, 4748, 5806
5070, 2584, 4844, 4706, 4751
5071, 2301, 4725, 4703, 4645
5072, 5689, 5626, 2515, 4724
5073, 5655, 4704, 2534, 4639
5074, 5779, 4705, 4840, 5804
5075, 5774, 4706, 5765, 2604
5076, 4770, 4709, 4802, 2336
5077, 4710, 4801, 4769, 5714
5078, 2472, 4886, 5233, 4736
5079, 4969, 4921, 2383, 4733
5080, 4797, 4758, 2265, 4696
5081, 5783, 4731, 4715, 4759
5082, 4323, 4579, 5646, 4716
5083, 5711, 2546, 5761, 2545
5084, 2545, 5662, 4719, 5711
5085, 4878, 4721, 4722, 4859
5086, 4722, 2295, 4707, 4889
5087, 4898, 4866, 2514, 5039
5088, 2534, 5689, 4724, 4763
5089, 2318, 4865, 2300, 5101
5090, 2319, 4703, 4725, 4764
5091, 4727, 2553, 4824, 4815
5092, 4814, 4728, 2348, 4835
5093, 4842, 4867, 4742, 4791
5094, 5666, 4730, 4555, 2573
5095, 5819, 5818, 5852, 4828
5096, 5819, 4828, 4786, 4731
5097, 4837, 4812, 4732, 5802
5098, 4733, 2383, 4667, 4606
5099, 2223, 5783, 4759, 4787
5100, 4609, 2203, 4734, 5782
5101, 4788, 5699, 5664, 4406
5102, 2495, 4853, 4736, 5233
5103, 4749, 4745, 2587, 4893
5104, 5800, 4970, 5770, 2441
5105, 2441, 4676, 4739, 5800
5106, 4773, 4805, 5827, 2419
5107, 4878, 4839, 4743, 4721
5108, 4811, 2257, 4839, 2258
5109, 4744, 4695, 2219, 4792
5110, 4746, 4848, 4771, 2435
5111, 4819, 4840, 4705, 2586
5112, 4912, 4702, 2585, 4964
5113, 2314, 5864, 5045, 5828
5114, 4753, 4672, 5766, 2472
5115, 4795, 4831, 5834, 4754
5116, 4638, 4755, 5060, 2478
5117, 4756, 5582, 4850, 4905
5118, 4849, 4758, 4797, 5607
5119, 4760, 4780, 4762, 4686
5120, 2226, 4643, 4762, 5813
5121, 2565, 4769, 4801, 4956
5122, 4820, 4765, 2227, 4685
5123, 4799, 2584, 4961, 5744
5124, 4845, 4813, 4768, 5761
5125, 5711, 4799, 5744, 2546
5126, 5758, 4833, 4873, 5788
5127, 4800, 5714, 4769, 4833
5128, 4834, 4874, 5752, 5025
5129, 4783, 5721, 5687, 4775
5130, 5799, 4772, 4793, 2528
5131, 5124, 4806, 5137, 5128
5132, 4774, 2509, 4804, 4807
5133, 4195, 5636, 4775, 5687
5134, 2588, 4674, 5874, 4776
5135, 2365, 4812, 4837, 4810
5136, 5875, 5014, 5901, 4785
5137, 2225, 4691, 4778, 4827
5138, 4680, 2239, 4559, 4619
5139, 5813, 4762, 4780, 4860
5140, 4902, 4781, 4825, 5848
5141, 4781, 4902, 5831, 4916
5142, 2460, 5063, 4782, 4826
5143, 4795, 4852, 2399, 4831
5144, 5886, 5824, 4894, 2549
5145, 5824, 4738, 4784, 4894
5146, 2352, 4729, 4785, 5901
5147, 4901, 4786, 2243, 4917
5148, 4787, 4609, 5782, 2223
5149, 4487, 4789, 2246, 5675
5150, 4829, 2370, 4872, 4790
5151, 4858, 4790, 4872, 5820
5152, 5837, 4842, 4791, 2353
5153, 4792, 2220, 4817, 4744
5154, 4794, 4404, 4483, 2544
5155, 4830, 5805, 5768, 4934
5156, 4796, 2461, 4850, 5600
5157, 5582, 5560, 5600, 4850
5158, 4668, 4717, 5722, 4798
5159, 4844, 5722, 5765, 4706
5160, 4799, 4767, 4844, 2584
5161, 4824, 4832, 4800, 5024
5162, 4956, 5735, 2533, 5031
5163, 4958, 4802, 2318, 5101
5164, 4804, 2509, 4772, 5799
5165, 4804, 5799, 4864, 4896
5166, 4805, 4741, 4858, 2387
5167, 2387, 4959, 5827, 4805
5168, 5065, 5089, 5124, 2404
5169, 5089, 2405, 4564, 5116
5170, 5816, 5043, 2473, 4836
5171, 4809, 2550, 4894, 4784
5172, 4809, 2588, 4776, 5887
5173, 4810, 4837, 4900, 5862
5174, 5191, 4810, 5862, 5863
5175, 4811, 4881, 4838, 4779
5176, 4869, 5730, 5703, 2572
5177, 2572, 4726, 4813, 4869
5178, 5025, 4814, 4835, 4803
5179, 4824, 2553, 4507, 4832
5180, 4822, 4815, 2552, 5797
5181, 4821, 4816, 4819, 2586
5182, 2585, 4702, 4816, 4821
5183, 4750, 4817, 2220, 4939
5184, 4669, 4818, 5810, 2222
5185, 5742, 5249, 4860, 4930
5186, 4916, 4932, 4892, 2589
5187, 4661, 4822, 5780, 2590
5188, 2370, 4662, 4823, 4931
5189, 5024, 4800, 4833, 5758
5190, 4815, 4824, 5024, 2552
5191, 4834, 5025, 4803, 4770
5192, 4565, 2610, 5848, 4825
5193, 2460, 4885, 4870, 4905
5194, 4879, 5818, 5783, 2223
5195, 4999, 4828, 5860, 5069
5196, 5805, 4426, 5769, 5768
5197, 4852, 4830, 4934, 5721
5198, 4831, 4848, 4979, 5834
5199, 2551, 4937, 5887, 4861
5200, 4900, 4837, 2383, 4921
5201, 4840, 4819, 5847, 4641
5202, 4965, 4940, 2240, 4913
5203, 5810, 4913, 5841, 4882
5204, 4843, 5747, 5699, 4788
5205, 4876, 4845, 5761, 2546
5206, 4845, 2571, 4869, 4813
5207, 5767, 5781, 4846, 5738
5208, 5207, 4918, 4847, 2571
5209, 4848, 4746, 4877, 4979
5210, 4979, 5857, 2400, 5834
5211, 2461, 4376, 5063, 4850
5212, 4851, 5242, 4871, 5638
5213, 4714, 4851, 5638, 2264
5214, 4783, 2399, 4852, 5721
5215, 5787, 4884, 5748, 5786
5216, 2454, 4735, 5748, 4884
5217, 4886, 4854, 4914, 4945
5218, 4940, 4887, 4838, 2240
5219, 4857, 2314, 4679, 5778
5220, 4949, 4890, 4995, 5189
5221, 5249, 5223, 4891, 4860
5222, 5854, 4882, 5841, 5851
5223, 4863, 2587, 5824, 5886
5224, 4895, 2528, 4918, 2570
5225, 4896, 2529, 5041, 2510
5226, 2515, 4687, 4920, 5682
5227, 2352, 4933, 5861, 4867
5228, 2527, 4868, 2571, 4847
5229, 5730, 4869, 2571, 4868
5230, 4977, 2370, 4931, 4996
5231, 2369, 4935, 5820, 4872
5232, 2565, 4907, 5823, 4873
5233, 4874, 4834, 4908, 4957
5234, 4875, 5820, 4935, 5849
5235, 5883, 5849, 4935, 2368
5236, 2571, 4845, 4876, 5207
5237, 4910, 4876, 2546, 5744
5238, 5857, 4979, 4877, 5048
5239, 4839, 4878, 4938, 2258
5240, 4964, 5789, 4961, 4912
5241, 5855, 5817, 4862, 5238
5242, 5900, 4880, 2400, 5877
5243, 2423, 4754, 4880, 5858
5244, 2258, 4938, 5073, 4903
5245, 2240, 4838, 4881, 4988
5246, 2222, 5810, 4882, 5854
5247, 4922, 5770, 4970, 5809
5248, 2459, 4826, 4883, 5764
5249, 4885, 4952, 4904, 4870
5250, 4886, 4945, 5814, 5233
5251, 4939, 4887, 4940, 2221
5252, 2314, 4857, 4888, 5864
5253, 5861, 4985, 2332, 4692
5254, 4924, 4889, 2296, 4971
5255, 4938, 4890, 4949, 5073
5256, 4820, 4685, 4891, 5223
5257, 4932, 5780, 4822, 5797
5258, 4976, 4892, 4932, 5797
5259, 4749, 4893, 5825, 2586
5260, 4894, 2550, 4929, 2549
5261, 4946, 4895, 2570, 5010
5262, 4897, 4942, 5728, 4927
5263, 4865, 2318, 4764, 4725
5264, 4898, 2533, 5735, 4763
5265, 4928, 4899, 4941, 5755
5266, 4900, 2384, 5188, 5862
5267, 4901, 4917, 5801, 2244
5268, 4989, 4903, 5073, 5050
5269, 4989, 2241, 5086, 4988
5270, 2490, 5017, 4904, 4952
5271, 4953, 4906, 4997, 5009
5272, 4957, 2335, 5112, 2349
5273, 5083, 5010, 2547, 4911
5274, 5825, 4963, 5871, 2586
5275, 5870, 5083, 4911, 5891
5276, 2584, 4751, 4912, 4961
5277, 4965, 4841, 2221, 4940
5278, 4948, 4914, 2473, 4994
5279, 5233, 5814, 5811, 2495
5280, 4967, 5067, 5003, 5045
5281, 4932, 4916, 5831, 5780
5282, 4901, 2244, 4827, 4778
5283, 2243, 4968, 5844, 4917
5284, 4919, 2275, 5688, 4942
5285, 4941, 4920, 2478, 5052
5286, 5809, 5002, 5776, 4922
5287, 4990, 2459, 5764, 5037
5288, 2280, 4859, 4924, 4981
5289, 4925, 4946, 2569, 4947
5290, 4973, 4926, 5004, 5127
5291, 5015, 5061, 5894, 4929
5292, 5006, 4974, 5775, 5027
5293, 5743, 4930, 5775, 4974
5294, 4985, 5861, 4933, 5013
5295, 4193, 2398, 4934, 5768
5296, 5051, 4977, 4996, 2349
5297, 5187, 5152, 5883, 2368
5298, 4980, 4936, 2436, 5046
5299, 4983, 5011, 4937, 2551
5300, 4943, 4928, 5755, 5020
5301, 5009, 5727, 5688, 4953
5302, 4927, 5728, 4944, 2300
5303, 4991, 4928, 4943, 2513
5304, 4944, 2276, 5021, 4992
5305, 4945, 4914, 4948, 2494
5306, 5814, 4945, 2494, 4923
5307, 2529, 4925, 4947, 4993
5308, 5073, 4949, 2259, 5050
5309, 5866, 5870, 4963, 5825
5310, 4950, 5866, 5825, 4893
5311, 4951, 5057, 5049, 2548
5312, 4950, 4951, 2548, 5866
5313, 2275, 4757, 4953, 5688
5314, 4871, 5242, 5246, 5710
5315, 4907, 2565, 5019, 5035
5316, 4959, 4998, 5030, 5827
5317, 2386, 4909, 4960, 5906
5318, 5207, 4962, 2570, 4918
5319, 5870, 5891, 5871, 4963
5320, 4966, 4888, 2332, 5895
5321, 5003, 2297, 4971, 2296
5322, 5045, 5003, 2296, 5828
5323, 5000, 2261, 5856, 5066
5324, 4969, 4733, 2423, 5016
5325, 2440, 5833, 5044, 5075
5326, 5002, 5809, 2440, 5846
5327, 5190, 5829, 5205, 5865
5328, 4923, 2494, 5135, 4972
5329, 2436, 4700, 5005, 5046
5330, 5006, 5026, 5234, 4974
5331, 4977, 2369, 4872, 2370
5332, 4978, 5051, 5091, 5145
5333, 5867, 5868, 5145, 5091
5334, 5834, 2400, 4880, 4754
5335, 5007, 4980, 2437, 5047
5336, 4982, 2241, 5012, 5882
5337, 5855, 2242, 4879, 5817
5338, 2567, 4984, 5011, 5169
5339, 5015, 4984, 2567, 5897
5340, 5013, 4933, 4986, 2351
5341, 5895, 2333, 5088, 5064
5342, 5023, 5057, 2568, 5042
5343, 4987, 2549, 4929, 5894
5344, 5050, 5012, 2241, 4989
5345, 5851, 5086, 2241, 4982
5346, 4990, 5037, 5093, 5098
5347, 5101, 2300, 5080, 5791
5348, 5081, 5041, 5892, 5108
5349, 5175, 5904, 5056, 2474
5350, 5008, 2280, 4981, 2279
5351, 5900, 5053, 5858, 4880
5352, 5048, 5877, 2400, 5857
5353, 4874, 4996, 4975, 5752
5354, 5033, 4997, 2263, 5076
5355, 5009, 4997, 5033, 5087
5356, 4998, 5034, 2420, 5030
5357, 5027, 2262, 5026, 5006
5358, 2261, 5844, 4968, 5879
5359, 4739, 2405, 5001, 5800
5360, 5833, 5001, 5065, 5044
5361, 5037, 5776, 2458, 5093
5362, 5004, 5028, 2437, 5127
5363, 5048, 4936, 5876, 5877
5364, 5189, 5084, 2259, 4949
5365, 2276, 5727, 5009, 5087
5366, 4962, 2547, 5010, 2570
5367, 4983, 2566, 5169, 5011
5368, 2260, 5133, 5012, 5084
5369, 5062, 5013, 2351, 5092
5370, 2366, 5070, 5014, 5875
5371, 5059, 5014, 5070, 5072
5372, 5888, 5858, 5053, 2422
5373, 2422, 5915, 5184, 5204
5374, 5017, 2490, 2477, 5052
5375, 5052, 2478, 5060, 5017
5376, 2335, 5757, 5018, 5794
5377, 5035, 5019, 5031, 2532
5378, 5172, 5038, 2476, 5200
5379, 5055, 2493, 5196, 5165
5380, 2494, 4948, 5890, 5022
5381, 2569, 5049, 5057, 5023
5382, 5134, 5061, 5119, 2530
5383, 4814, 5025, 5752, 4975
5384, 5234, 5026, 5076, 2263
5385, 2262, 5027, 5807, 5000
5386, 5074, 5028, 2455, 5146
5387, 5075, 5881, 5846, 2440
5388, 5109, 5846, 5881, 2439
5389, 5090, 5030, 2420, 5126
5390, 2419, 5827, 5030, 5090
5391, 5039, 5100, 2533, 4898
5392, 2317, 5018, 5032, 5835
5393, 5034, 5919, 5097, 2420
5394, 5094, 5120, 5151, 2531
5395, 5878, 5036, 2317, 5147
5396, 2334, 5836, 5111, 5088
5397, 4943, 5038, 5826, 2513
5398, 5079, 4991, 2513, 5843
5399, 5080, 5040, 2299, 5105
5400, 5103, 5102, 5845, 2510
5401, 5042, 5134, 4993, 4947
5402, 5095, 5845, 5102, 5107
5403, 5845, 5095, 5043, 5816
5404, 2404, 5110, 5044, 5065
5405, 2401, 5007, 5047, 5910
5406, 5047, 2437, 5082, 5113
5407, 5900, 5877, 5876, 5068
5408, 5084, 5189, 5822, 2260
5409, 5091, 5051, 2349, 5117
5410, 5054, 2477, 5106, 5215
5411, 5074, 5146, 5165, 2456
5412, 5146, 5135, 5055, 5165
5413, 5056, 5890, 5905, 2474
5414, 5106, 2477, 2490, 5098
5415, 2260, 5859, 5058, 5069
5416, 2351, 4986, 5059, 5092
5417, 5912, 5894, 5061, 5134
5418, 2262, 5000, 5066, 5096
5419, 5909, 5114, 5166, 5158
5420, 2297, 5003, 5067, 5158
5421, 2401, 5123, 5914, 5068
5422, 2366, 5130, 5908, 5070
5423, 5072, 5070, 5908, 2367
5424, 5859, 5149, 5071, 5058
5425, 2367, 5131, 5132, 5072
5426, 5135, 5146, 2455, 4972
5427, 5186, 5193, 2456, 5195
5428, 5792, 5026, 2262, 5096
5429, 5136, 5118, 2350, 5117
5430, 5100, 2532, 5031, 2533
5431, 4958, 5791, 5032, 5756
5432, 2511, 5102, 5103, 5893
5433, 2260, 5069, 5860, 5133
5434, 2315, 5911, 5085, 5909
5435, 5830, 2240, 4988, 5086
5436, 5087, 2277, 5021, 2276
5437, 5062, 5118, 5115, 5884
5438, 4806, 5124, 5089, 5116
5439, 5071, 5880, 5856, 2261
5440, 5815, 5793, 5125, 5121
5441, 2404, 5124, 5128, 5148
5442, 5117, 2349, 5112, 5136
5443, 5868, 5867, 5132, 5131
5444, 5099, 5093, 2458, 5138
5445, 2567, 5120, 5094, 5897
5446, 5905, 5095, 5107, 2474
5447, 5087, 5125, 5793, 2277
5448, 5122, 2421, 5171, 5139
5449, 5098, 2491, 5795, 5106
5450, 5100, 5039, 5079, 5808
5451, 5103, 2510, 5041, 5081
5452, 5081, 5108, 5893, 5103
5453, 5161, 5104, 5140, 5183
5454, 2299, 5141, 5902, 5105
5455, 5903, 5902, 5141, 2298
5456, 5215, 5795, 5182, 5839
5457, 2512, 5176, 2511, 5167
5458, 5144, 5893, 5108, 5913
5459, 2457, 5138, 5109, 5159
5460, 5846, 5109, 5029, 5002
5461, 5044, 5110, 5873, 5075
5462, 2404, 5148, 5170, 5110
5463, 5187, 5131, 2367, 5152
5464, 5129, 5111, 5878, 2316
5465, 2402, 5150, 5113, 5157
5466, 5166, 5114, 5168, 5199
5467, 5158, 5067, 2315, 5909
5468, 5884, 2334, 5088, 2333
5469, 5117, 2350, 5867, 5091
5470, 5850, 5115, 5118, 5136
5471, 4993, 5134, 2530, 5892
5472, 5151, 5120, 5035, 2532
5473, 5121, 2278, 5163, 5815
5474, 5126, 5122, 5139, 2403
5475, 2385, 5917, 5077, 5156
5476, 5919, 5917, 2385, 5162
5477, 5915, 5914, 5123, 5154
5478, 5126, 2403, 5170, 5148
5479, 5127, 2437, 4980, 5046
5480, 5090, 5128, 5137, 2419
5481, 2278, 5149, 5143, 5163
5482, 5863, 5130, 2366, 5191
5483, 5152, 5160, 5916, 5156
5484, 2368, 4978, 5145, 5868
5485, 2350, 5092, 5132, 5867
5486, 5042, 2568, 5912, 5134
5487, 5099, 5202, 5201, 5838
5488, 5164, 2402, 5157, 5178
5489, 5172, 5203, 5826, 5038
5490, 5183, 5167, 5144, 5896
5491, 5815, 5174, 2277, 5793
5492, 5903, 2298, 5168, 5907
5493, 5142, 2474, 5107, 5176
5494, 5166, 5199, 5190, 5865
5495, 5878, 5147, 5173, 2316
5496, 5155, 5170, 2403, 5178
5497, 5149, 2279, 5829, 5143
5498, 2367, 5908, 5160, 5152
5499, 5153, 5074, 2456, 5193
5500, 5153, 5193, 2438, 5082
5501, 5162, 5154, 2421, 5918
5502, 5164, 5178, 2403, 5139
5503, 2439, 5873, 5155, 5885
5504, 5906, 5156, 5077, 2386
5505, 5157, 5885, 5155, 5178
5506, 5899, 5898, 5181, 5916
5507, 5182, 5853, 5198, 5839
5508, 5151, 5161, 5896, 2531
5509, 5167, 2511, 5893, 5144
5510, 5176, 2512, 5203, 2475
5511, 2385, 5181, 5184, 5162
5512, 5174, 5815, 5163, 5194
5513, 5158, 5166, 5865, 2297
5514, 2298, 5194, 5199, 5168
5515, 5114, 5085, 5907, 5168
5516, 5179, 2421, 5154, 5123
5517, 5203, 5172, 5200, 2475
5518, 5174, 5141, 2299, 5040
5519, 5197, 5175, 5192, 2492
5520, 2475, 5872, 5142, 5176
5521, 5177, 5194, 5163, 5143
5522, 5885, 5157, 5180, 2439
5523, 5159, 5193, 5186, 2457
5524, 5204, 5184, 5188, 2384
5525, 5916, 5181, 2385, 5156
5526, 5200, 5215, 5839, 5198
5527, 5183, 5140, 2512, 5167
5528, 5149, 5859, 5185, 2279
5529, 5883, 5906, 4960, 5849
5530, 2279, 4981, 5205, 5829
5531, 5869, 5201, 5202, 5195
5532, 5197, 5869, 5889, 5175
5533, 2492, 5201, 5869, 5197
5534, 2475, 5200, 5198, 5872
5535, 5853, 5182, 2492, 5192
5536, 5869, 5195, 5196, 5889
5537, 5888, 5204, 5245, 5016
5538, 3094, 3369, 5206, 5330
5539, 2573, 4235, 5209, 5621
5540, 5356, 5211, 2706, 3297
5541, 3166, 3101, 5211, 5356
5542, 2329, 4137, 5212, 5684
5543, 5332, 5214, 2094, 3300
5544, 3164, 3091, 5214, 5332
5545, 5215, 5200, 2476, 5054
5546, 5216, 2355, 4066, 5637
5547, 5229, 2827, 2829, 2076
5548, 5230, 2542, 3807, 5388
5549, 5234, 2263, 4954, 2245
5550, 5235, 2715, 3173, 3120
5551, 5817, 4879, 2223, 5782
5552, 5854, 5238, 4862, 2222
5553, 5242, 5675, 2246, 5246
5554, 5493, 2284, 5243, 2283
5555, 5710, 2245, 4954, 4871
5556, 5710, 5246, 5249, 5742
5557, 5247, 4170, 2627, 5251
5558, 5248, 4171, 2158, 5250
5559, 4223, 5250, 5622, 4343
5560, 5251, 4346, 5737, 4224
5561, 5252, 2863, 5258, 5261
5562, 5253,  271,  272, 2940
5563,  277, 5254, 5256,  276
5564, 2842, 2920, 5267, 5268
5565, 3179, 3099, 5273, 5277
5566, 3268, 5279, 5311, 2086
5567, 5286, 3361, 5338, 5287
5568, 2128, 3447, 5286, 5287
5569, 2150, 3116, 5288, 5289
5570, 2251, 3542, 5290, 5291
5571, 3245, 5293, 3100, 5322
5572, 2376, 3112, 5298, 5299
5573, 2465, 3541, 5300, 5301
5574, 3331, 5354, 2721, 5282
5575, 3235, 5283, 3172, 3546
5576, 5308, 3014, 2727, 5309
5577, 5310, 3672, 5317, 2467
5578, 5314, 2087, 5350, 3579
5579, 3665, 5315, 3511, 5352
5580, 3555, 5325, 3450, 5381
5581, 3146, 5326, 3210, 5371
5582, 3554, 5327, 3452, 5372
5583, 2681, 3178, 5328, 5329
5584, 5335, 5334, 5370, 3294
5585, 5338, 3361, 5384, 2127
5586, 3138, 5287, 5338, 5339
5587, 5339, 3265, 5383, 3157
5588, 2149, 5340, 3157, 5383
5589, 3065, 5289, 5340, 5341
5590, 5342, 2323, 4253, 4288
5591, 5346, 3277, 2290, 3414
5592, 5384, 5348, 5393, 2127
5593, 3521, 5360, 2713, 5427
5594, 5432, 5363, 2708, 3202
5595, 5364, 3286, 3388, 2090
5596, 5367, 3290, 3393, 2098
5597, 5370, 2720, 5404, 3294
5598, 2467, 5317, 5375, 5376
5599, 5210, 5378, 5379, 3401
5600, 5382, 3719, 5425, 2486
5601, 5394, 5459, 3405, 5421
5602, 5448, 3402, 5409, 5408
5603, 5410, 3382, 5452, 2120
5604, 2374, 3626, 5417, 5424
5605, 2190, 3600, 5434, 5435
5606, 5438, 2640, 5468, 3538
5607, 5450, 5441, 2518, 4362
5608, 5472, 5442, 2304, 4363
5609, 5445, 3578, 5486, 3662
5610, 5395, 5355, 2375, 3438
5611, 5446, 4105, 4182, 4289
5612, 5447, 3514, 2686, 3726
5613, 5449, 3682, 5474, 2145
5614, 5462, 3384, 2693, 5495
5615, 2391, 3510, 5467, 5497
5616, 3899, 5443, 5475, 5478
5617, 5476, 3500, 2432, 3820
5618, 3288, 2711, 5479, 5480
5619, 3468, 3390, 5480, 5514
5620, 5482, 3766, 2291, 3806
5621, 5415, 5483, 5484, 2210
5622, 5486, 2357, 5536, 3745
5623, 3482, 5492, 2691, 5528
5624, 3923, 2284, 5493, 5494
5625, 3568, 2697, 3830, 5464
5626, 3688, 2137, 5463, 2115
5627, 3744, 5499, 2451, 5540
5628, 4168, 2248, 5551, 5502
5629, 4238, 5503, 4149, 5571
5630, 5505, 2148, 3306, 3437
5631, 5506, 3721, 5500, 3773
5632, 2678, 3220, 5509, 5510
5633, 5515, 2688, 5479, 3404
5634, 3479, 3620, 5516, 3687
5635, 3946, 5526, 3990, 5517
5636, 5545, 5519, 3897, 2310
5637, 5520, 3926, 4020, 2469
5638, 5562, 5525, 2373, 4068
5639, 5529, 2166, 5556, 4052
5640, 3715, 3903, 4089, 5533
5641, 5534, 3798, 3834, 2620
5642, 5543, 5537, 2675, 4118
5643, 4009, 2641, 5588, 5538
5644, 5583, 5540, 2451, 4108
5645, 5558, 4440, 5605, 4460
5646, 2488, 4625, 5560, 5582
5647, 5563, 3761, 5612, 3861
5648, 2665, 5563, 3861, 5641
5649, 5570, 2663, 4213, 4146
5650, 4110, 5574, 5573, 5624
5651, 4160, 2675, 3955, 5586
5652, 5585, 2147, 5587, 4080
5653, 3717, 3583, 5593, 5594
5654, 5648, 5596, 2444, 5694
5655, 5597, 5641, 5628, 5575
5656, 4635, 4051, 4371, 4594
5657, 2407, 4467, 5599, 5614
5658, 3860, 5604, 5619, 3934
5659, 5649, 3813, 5596, 5648
5660, 4849, 5607, 4487, 5675
5661, 5610, 2216, 4006, 2217
5662, 5673, 5613, 4308, 2228
5663, 5620, 4074, 2612, 5677
5664, 5625, 2462, 4326, 4307
5665, 5629, 2185, 4333, 4273
5666, 2652, 4429, 5634, 5635
5667, 5661, 5635, 4575, 2651
5668, 5647, 5646, 4579, 2182
5669, 5694, 4001, 5649, 5648
5670, 5651, 4036, 2632, 4322
5671, 5659, 3933, 5707, 4133
5672, 5672, 5671, 4411, 5719
5673, 4256, 5620, 5677, 5678
5674, 5689, 2534, 4704, 5626
5675, 2545, 5761, 4768, 5692
5676, 2489, 4756, 4905, 4870
5677, 5697, 4339, 5715, 4788
5678, 5715, 2496, 5749, 4671
5679, 5672, 5719, 5720, 2650
5680, 5722, 4717, 5772, 5765
5681, 2604, 5773, 5733, 5745
5682, 4268, 4575, 5725, 2624
5683, 5728, 5727, 2276, 4944
5684, 4942, 5688, 5727, 5728
5685, 5736, 5731, 2644, 4462
5686, 4389, 4447, 5732, 4271
5687, 5733, 5696, 4538, 5745
5688, 4505, 2312, 5739, 5740
5689, 2245, 5710, 5742, 5743
5690, 4735, 5699, 5747, 5748
5691, 5786, 5785, 4853, 2495
5692, 4522, 2389, 5750, 5751
5693, 4908, 2336, 5756, 5757
5694, 2644, 5759, 5760, 4462
5695, 4922, 5764, 4883, 5770
5696, 5781, 5767, 2221, 4841
5697, 2425, 4193, 5768, 5769
5698, 5772, 4717, 5723, 5773
5699, 5765, 5772, 5773, 2604
5700, 2313, 5740, 5777, 5778
5701, 5778, 5777, 5803, 4857
5702, 4818, 5781, 4841, 5810
5703, 5748, 5747, 5785, 5786
5704, 5787, 5786, 2495, 5811
5705, 2552, 5758, 5788, 5797
5706, 5790, 4605, 5805, 4830
5707, 5792, 5033, 5076, 5026
5708, 5794, 5036, 5836, 5078
5709, 4519, 5760, 5796, 5798
5710, 5800, 5001, 5833, 4970
5711, 5807, 5801, 4917, 5844
5712, 5809, 4970, 5833, 2440
5713, 4923, 5787, 5811, 5814
5714, 5816, 4807, 2510, 5845
5715, 5852, 5818, 4879, 2242
5716, 4731, 5783, 5818, 5819
5717, 5821, 5008, 5185, 5822
5718, 5823, 4907, 2566, 4983
5719, 5086, 5851, 5841, 5830
5720, 2590, 5780, 5831, 5832
5721, 4569, 2590, 5832, 2610
5722, 5078, 5836, 2334, 5850
5723, 4785, 5840, 4777, 5875
5724, 4748, 4527, 4641, 5847
5725, 5855, 5238, 5882, 2242
5726, 2278, 5121, 5856, 5880
5727, 5859, 2260, 5822, 5185
5728, 5860, 4828, 5852, 5133
5729, 5863, 5862, 5188, 5898
5730, 5873, 2439, 5881, 5075
5731, 5876, 5007, 2401, 5068
5732, 5889, 5196, 2493, 5904
5733, 5891, 4911, 4821, 5871
5734, 5863, 5898, 5899, 5130
5735, 2316, 5173, 5903, 5907
5736, 5911, 4967, 4915, 5064
5737, 2422, 5053, 5914, 5915
5738, 5918, 5097, 5919, 5162
5739, 5064, 4915, 4966, 5895
5787,  171,  170, 6201, 6200
5788,  170,  169, 6248, 6201
5789, 6425, 7481, 6484, 6426
5790, 6765, 6758,  374,  375
5791, 6756, 6599, 6765, 6789
5792, 5946, 6789, 6769, 6862
5793, 6770, 5960, 6862, 6769
5794, 5975, 6906, 6790, 6771
5795, 6791, 6772,  381,  382
5796, 6000, 6911, 6791, 6773
5797, 6792, 6774,  384,  385
5798, 6028, 6014, 6792, 6775
5799, 6793, 6776,  387,  388
5800, 6070, 6902, 6782, 6794
5801, 7475, 6778,  392,  393
5802, 6783, 6099, 6909, 7026
5803, 6784, 6779,  395,  396
5804, 6912, 6784, 6796, 6124
5805, 6785, 6780,  398,  399
5806, 6785, 6797, 6150, 6918
5807, 6165, 6901, 6786, 6787
5808, 6787, 6798, 6875, 6165
5809, 6192, 6788, 6781, 6921
5810, 6921, 6781,  406,  407
5811,  406, 6781,  405,    9
5812, 6806, 6800,  408,  409
5813,  407,  408, 6800, 6921
5814, 6946, 6916, 6908, 6192
5815, 7384, 7490, 7392, 7375
5816, 7491, 7384, 7375, 6151
5817, 6918, 7314, 7292, 6893
5818, 6124, 7284, 7265, 6912
5819, 7241, 7136, 7265, 6125
5820, 7069, 6885, 7081, 7110
5821, 7069, 6909, 6099, 6885
5822, 6978, 6879, 7026, 6085
5823, 6969, 6926, 6055, 6902
5824, 6972, 6941, 6028, 6896
5825, 6931, 6963, 6888, 6014
5826, 6973, 7499, 6967, 6999
5827, 7499, 6973, 6882, 6911
5828, 6937, 6954, 6906, 5975
5829, 6878, 5947, 6881, 5961
5830, 6578, 6563, 6581, 6590
5831, 6513, 6458, 6484, 7494
5832, 6216, 6215,  179,  178
5833, 6224, 6223,  177,  176
5834, 6252, 6225, 6213, 6282
5835, 6214, 6213,  183,  182
5836, 6463, 7564, 7551, 6442
5837, 7586, 6617, 6605, 7628
5838, 6663, 6675, 6686, 5939
5839, 6714, 5951, 6709, 6718
5840, 5966, 6708, 6724, 6757
5841, 6736, 6764, 5982, 6734
5842, 6930, 6962, 5993, 6873
5843, 7091, 7049, 6008, 7053
5844, 7125, 7128, 7102, 6022
5845, 7155, 6039, 7152, 7149
5846, 6053, 7248, 7188, 7215
5847, 7143, 6068, 7165, 7521
5848, 6910, 7487, 7160, 7174
5849, 7477, 6801,  443,  444
5850, 6802, 6083, 6843, 7477
5851,  444,  445, 6802, 7477
5852, 6802, 6826, 7479, 6083
5853, 7058, 7127, 6913, 6891
5854, 7485, 7215, 6054, 7038
5855, 7113, 7135, 7129, 6040
5856, 6023, 7115, 7085, 7102
5857, 6873, 5993, 6929, 5983
5858, 6849, 6741, 5982, 6868
5859, 6745, 6759, 6743, 7544
5860, 6680, 6694, 6681, 5952
5861, 6613, 6626, 7642, 6612
5862, 6449, 6450, 6472, 7591
5863,  187,  186, 6212, 6202
5864, 6441, 6447, 6468, 7583
5865, 6447, 6453, 6474, 6468
5866, 6211, 6261, 6272, 6227
5867,  193,  192, 6241, 6203
5868, 6280, 6209, 6229, 6274
5869, 6254, 6206, 6236, 6291
5870, 6255, 6204, 6233, 6290
5871, 6251, 6487,  470,  471
5872, 6761, 6884, 6565, 5935
5873, 5945, 6851, 6890, 6939
5874, 7050, 7511, 6965, 5970
5875, 7013, 7513, 7504, 5972
5876, 7073, 7008, 6869, 5999
5877, 6846, 6803,  452,  453
5878, 6846, 6804, 5999, 6869
5879,  453,  454, 6804, 6846
5880,  454,  455, 6805, 6804
5881, 7202, 6904, 6876, 7220
5882, 7205, 6922, 5972, 7504
5883,  463, 6852, 5958,  462
5884,  465, 5945, 6853,  464
5885, 5945,  465,  466, 6851
5886,  197,  196, 6210, 6229
5887, 6806, 6832, 6193, 6916
5888, 7358, 6166, 6167, 7364
5889, 6151, 7375, 6166, 7358
5890, 7303, 7300, 7305, 6152
5891, 7284, 7283, 6125, 7265
5892, 7136, 7241, 7233, 7110
5893, 7064, 7095, 7039, 6100
5894, 7014, 7048, 6978, 6085
5895, 6071, 6991, 6969, 6940
5896, 6983, 6994, 6970, 6056
5897, 6972, 7519, 6029, 6941
5898, 6982, 7051, 7018, 6001
5899, 5988, 7000, 6993, 7017
5900, 5977, 6960, 6948, 6855
5901, 5962, 6870, 6933, 7548
5902, 6767, 6878, 6870, 6799
5903, 5937, 6707, 6699, 6692
5904, 6572, 6587, 6608, 5929
5905, 6442, 6454, 6475, 6463
5906, 6808, 6807,  411,  412
5907,  410,  411, 6807, 6832
5908, 6897, 6182, 6181, 6193
5909, 7364, 6167, 7425, 7531
5910, 7294, 6137, 7300, 7303
5911, 6112, 7233, 7230, 7189
5912, 7179, 7198, 6102, 7217
5913, 7153, 6086, 7162, 7156
5914, 7123, 7558, 7545, 7116
5915, 7061, 7033, 6057, 7052
5916, 7033, 7043, 7007, 6057
5917, 7028, 6043, 7041, 7035
5918, 7036, 7055, 7006, 6030
5919, 6997, 5988, 7017, 7019
5920, 6863, 6726, 6859, 5962
5921, 6799, 6716, 5948, 6767
5922, 6685, 6692, 6699, 6703
5923, 6642, 6634, 6617, 7586
5924, 6808, 6833, 6865, 6194
5925, 7500, 6865, 6183, 7365
5926, 7365, 6168, 7531, 6182
5927, 7350, 6153, 7332, 6168
5928, 7559, 7569, 7298, 6138
5929, 7258, 7250, 7273, 7560
5930, 6113, 7244, 7250, 7232
5931, 7557, 7179, 7217, 7178
5932, 7130, 7151, 7097, 6073
5933, 7097, 6074, 7120, 7107
5934, 7088, 7078, 7072, 6058
5935, 6045, 7099, 7087, 7079
5936, 7025, 7567, 7065, 6017
5937, 6004, 6990, 6961, 7625
5938, 5989, 6952, 7600, 6947
5939, 5978, 6874, 6732, 6754
5940, 6702, 6706, 6711, 6695
5941, 6683, 6670, 6676, 6691
5942,  413,  414, 6809, 6833
5943, 7450, 7451, 6183, 6184
5944, 6154, 7340, 7337, 7556
5945, 7575, 6139, 7304, 6154
5946, 7315, 7293, 6139, 7575
5947, 7286, 7255, 7282, 7293
5948, 7222, 6104, 7209, 7228
5949, 7218, 6089, 7612, 7196
5950, 7197, 7623, 6088, 7612
5951, 7141, 7148, 7120, 6074
5952, 7122, 7124, 7106, 6059
5953, 7090, 6032, 7099, 7126
5954, 7045, 7016, 6017, 7065
5955, 6949, 7625, 6961, 6989
5956, 6932, 6867, 6750, 7613
5957, 6742, 7614, 6739, 6856
5958, 5964, 6848, 6737, 6733
5959, 6718, 6709, 6710, 5950
5960,  414,  415, 6810, 6809
5961, 6810, 6834, 6195, 6877
5962, 7440, 7443, 6877, 6195
5963, 6170, 7450, 7444, 7449
5964, 7449, 7351, 7455, 6170
5965, 7309, 6127, 7286, 6140
5966, 7281, 7318, 7262, 6115
5967, 7260, 7245, 7280, 6105
5968, 6089, 7218, 7227, 7216
5969, 7216, 7650, 7627, 6089
5970, 6060, 7154, 7176, 7170
5971, 6047, 7134, 6046, 7140
5972, 7086, 6034, 7672, 7059
5973, 7044, 7005, 6018, 7643
5974, 6955, 6005, 6959, 6998
5975, 6925, 6748, 6752, 6861
5976,  416,  417, 7476, 6834
5977, 6811, 6195, 6834, 7476
5978, 7436, 6185, 7438, 7435
5979, 7395, 7507, 7391, 6171
5980, 7345, 7341, 7349, 6157
5981, 7601, 7602, 7320, 7578
5982, 7336, 7310, 7319, 7616
5983, 7253, 7276, 6106, 7261
5984, 7645, 7251, 7636, 7243
5985, 7652, 7224, 7212, 7666
5986, 7190, 7668, 7193, 7670
5987, 7111, 7147, 6048, 7133
5988, 7108, 6034, 7086, 7134
5989, 6019, 7047, 7042, 7009
5990, 6006, 6996, 6985, 6956
5991, 7620, 6956, 6964, 7604
5992, 5992, 6868, 6927, 6964
5993,  417,  418, 7434, 7476
5994,  418,  419, 6835, 7434
5995, 7404, 6186, 7428, 7482
5996, 7398, 7393, 6172, 7507
5997, 6157, 7381, 7374, 7345
5998, 7362, 6142, 7345, 7374
5999, 7355, 7359, 6130, 7346
6000, 7324, 7334, 7355, 6118
6001, 6107, 7272, 7297, 7312
6002, 7272, 7263, 7261, 6106
6003, 7219, 7242, 6077, 7658
6004, 7193, 6063, 7181, 6062
6005, 7164, 7146, 6048, 7147
6006, 7070, 6020, 7104, 7077
6007, 7037, 7012, 6020, 7070
6008, 6007, 7023, 6986, 7021
6009,  419,  420, 6812, 6835
6010, 6836, 6812,  420,  421
6011, 6914, 6197, 7426, 7415
6012, 6173, 7394, 7402, 7418
6013, 7389, 7386, 6158, 7378
6014, 7382, 7371, 7383, 6158
6015, 7370, 6131, 7361, 7597
6016, 7346, 7354, 7343, 6118
6017, 7312, 7325, 7313, 6107
6018, 7269, 6093, 7266, 7291
6019, 7223, 7240, 7264, 6078
6020, 7194, 7632, 7213, 7658
6021, 7166, 7158, 6049, 7660
6022, 7142, 6050, 7145, 6036
6023, 7101, 6022, 7093, 7096
6024, 6814, 6813,  422,  423
6025,  421,  422, 6813, 6836
6026, 6892, 7430, 7426, 6197
6027, 7402, 7421, 7532, 7418
6028, 7407, 7396, 6159, 7539
6029, 7379, 7388, 7387, 6145
6030, 7369, 6132, 7363, 7372
6031, 6120, 7342, 7347, 7580
6032, 7328, 7357, 7316, 6108
6033, 7270, 7289, 7594, 6094
6034, 7231, 7246, 7259, 6079
6035, 6064, 7214, 7206, 7191
6036, 7172, 7595, 7208, 6051
6037, 7157, 6038, 7139, 7169
6038, 7125, 7139, 6038, 7128
6039, 6814, 6837, 6198, 6919
6040, 6919, 6198, 7442, 7433
6041, 6175, 7518, 7429, 7461
6042, 7397, 7427, 7410, 6145
6043, 7412, 7390, 7380, 6146
6044, 7400, 6121, 7367, 7390
6045, 7348, 6109, 7561, 7335
6046, 7259, 6094, 6095, 7257
6047, 7237, 7234, 6065, 7229
6048, 7173, 7192, 7252, 6052
6049, 7155, 7175, 7163, 6039
6050,  424,  425, 6815, 6837
6051, 6198, 6837, 6815, 6899
6052, 7471, 7469, 6189, 7442
6053, 6176, 7467, 7463, 7458
6054, 6176, 7458, 7454, 6161
6055, 7432, 6146, 7427, 7454
6056, 7390, 7412, 7414, 7400
6057, 7408, 7405, 6121, 7400
6058, 7385, 6109, 7377, 7417
6059, 6095, 7288, 7307, 7285
6060, 7317, 7279, 7285, 7541
6061, 7268, 6066, 6067, 7204
6062, 7184, 7204, 6067, 7522
6063,  425,  426, 6816, 6815
6064, 6816, 6838, 6199, 6871
6065, 7470, 7473, 7472, 6190
6066, 6177, 7460, 7457, 7459
6067, 7453, 7501, 7459, 6163
6068, 7447, 6147, 7448, 7453
6069, 7441, 7352, 7431, 6133
6070, 7290, 7327, 7302, 7323
6071, 7416, 7420, 7278, 6110
6072, 6097, 7249, 7226, 7207
6073, 6096, 7299, 7317, 7541
6074,  427,  428, 6817, 6838
6075, 6199, 6838, 6817, 6951
6076, 6951, 7468, 7472, 6199
6077, 7483, 7465, 6191, 6915
6078, 6164, 7456, 6895, 6840
6079, 7452, 7366, 6148, 7447
6080, 7333, 6900, 7488, 6134
6081, 7247, 7256, 6907, 6842
6082, 7207, 7226, 6880, 6098
6083, 7207, 6910, 7174, 6097
6084, 6860,  430,  431, 6818
6085,  430, 6860,  429,   10
6086, 6191, 6839, 6819, 6915
6087, 6179, 6915, 6819, 6820
6088, 6164, 6840, 6821, 6920
6089, 6822, 6149, 6920, 6821
6090, 6149, 7480, 6900, 7489
6091, 6907, 6872, 6824, 6842
6092, 6801, 6098, 6880, 6825
6093, 6844, 6826,  446,  447
6094, 6891, 6913, 6827, 6828
6095, 7058, 6891, 7038, 6054
6096, 6979, 7015, 7094, 6041
6097, 7075, 7098, 6025, 6987
6098, 7083, 7071, 6010, 7085
6099, 6980, 6974, 5994, 7010
6100, 6936, 6966, 6934, 6894
6101, 6740, 5967, 6734, 6738
6102, 7579, 6630, 6621, 5941
6103, 6610, 6631, 6621, 6594
6104, 6489, 6491, 6465, 6466
6105, 6448, 6449, 7591, 6471
6106,  447,  448, 6827, 6844
6107, 7027, 6917, 6979, 6041
6108, 6971, 6987, 6026, 6942
6109, 6011, 7118, 7103, 7083
6110, 7032, 5995, 7089, 7054
6111, 6984, 6966, 5984, 7024
6112, 6883, 6762, 5968, 6934
6113, 6745, 7543, 5953, 6759
6114, 6505, 7593, 6467, 6523
6115, 6845, 6828,  449,  450
6116, 6027, 6917, 6845, 6829
6117, 6898, 6971, 6942, 6027
6118, 7138, 6012, 7046, 7168
6119, 5997, 7100, 5996, 7131
6120, 7029, 7022, 5985, 7056
6121, 5969, 6958, 6944, 6883
6122, 5943, 6760, 6672, 6650
6123, 6623, 7512, 6611, 7533
6124, 7568, 6502, 6481, 6457
6125, 6478, 6456, 6455, 6477
6126,  450,  451, 6829, 6845
6127, 6027, 6829, 6803, 6898
6128, 5997, 7138, 7168, 7180
6129, 7013, 6977, 5971, 5986
6130, 5971, 6977, 7511, 7050
6131, 6924, 6890, 6903, 5955
6132, 5935, 6637, 6672, 6761
6133, 6514, 6645, 7484, 6460
6134, 6459, 6457, 6481, 6486
6135, 5999, 6804, 6805, 6904
6136, 6876, 6847, 6830, 5974
6137, 5974, 6763, 5959, 5973
6138,  462, 5958, 5959,  461
6139, 6831, 6830,  457,  458
6140, 6763,  460,  461, 5959
6141, 5974, 6830, 6831, 6763
6142,  467, 6884, 6851,  466
6143, 5944, 6761, 6672, 6760
6144, 6487, 6251, 6428, 7484
6145,  217,  216, 6220, 6298
6146, 6256, 6278, 6335, 6339
6147, 6231, 6257, 6291, 6236
6148,  372, 6485, 6299,  371
6149, 6513, 7494, 6538, 6527
6150, 7589, 6635, 6655, 6652
6151, 6618, 6622, 6609, 5930
6152, 6593, 6600, 7647, 7653
6153, 6580, 6589, 5933, 6583
6154, 6574, 6598, 6566, 6558
6155, 6637, 5935, 6645, 6597
6156, 6758, 6765, 6599, 5927
6157, 6671, 6590, 6581, 6688
6158, 6587, 5928, 6616, 6608
6159, 6700, 6690, 6684, 6673
6160, 6682, 6664, 5939, 6686
6161, 7619, 6674, 6659, 6667
6162, 5943, 6650, 6638, 6661
6163, 6852, 6853, 6953, 5957
6164,  464, 6853, 6852,  463
6165, 6756, 6766, 6687, 6679
6166, 6699, 6707, 6719, 5948
6167, 6691, 6703, 6701, 5949
6168, 6693, 6704, 6712, 6708
6169, 6723, 6698, 5951, 6714
6170, 5967, 6743, 6857, 6731
6171, 6740, 6738, 7552, 6747
6172, 6762, 6883, 6864, 5954
6173, 6953, 6853, 5945, 6939
6174, 6944, 6958, 6924, 5955
6175, 5972, 6928, 6977, 7013
6176, 6852, 5957, 6928, 5958
6177, 5959, 5958, 6922, 5973
6178, 7546, 6716, 6725, 6768
6179, 6702, 5949, 7546, 6706
6180, 6729, 6717, 5966, 6730
6181, 6731, 6717, 6729, 6736
6182, 6741, 6738, 6734, 5982
6183, 6936, 6894, 5983, 6929
6184, 5969, 6966, 6984, 7002
6185, 7029, 7050, 5970, 7022
6186, 7516, 7180, 7177, 7201
6187, 5973, 6922, 7205, 7505
6188, 5974, 5973, 7220, 6876
6189, 6790, 6906, 5960, 6770
6190, 5961, 6933, 6870, 6878
6191, 6726, 6863, 6754, 6732
6192, 6753, 7574, 6848, 5964
6193, 6735, 6737, 6739, 5980
6194, 6974, 6980, 5984, 7554
6195, 7054, 7056, 5985, 7032
6196, 7100, 7203, 7074, 5996
6197, 7073, 7202, 7177, 5998
6198, 6904, 7202, 7073, 5999
6199, 6771, 6772, 6882, 5975
6200, 7000, 6948, 6960, 6999
6201, 6947, 6887, 5978, 7581
6202, 6742, 6755, 6749, 7635
6203, 7655, 6866, 6752, 6744
6204, 5993, 7011, 6968, 6929
6205, 5994, 6968, 7011, 6981
6206, 5995, 7032, 7571, 7010
6207, 7083, 7103, 7553, 7071
6208, 7103, 7118, 7131, 5996
6209, 7168, 7046, 7506, 5998
6210, 6772, 6791, 6911, 6882
6211, 6001, 7018, 6993, 6967
6212, 6932, 6952, 6004, 7625
6213, 7655, 6005, 6950, 6866
6214, 6006, 6950, 6005, 6955
6215, 6950, 6006, 6956, 7620
6216, 7576, 7102, 7085, 6010
6217, 6009, 7091, 7093, 7576
6218, 7115, 6011, 7083, 7085
6219, 7066, 7150, 7075, 6013
6220, 6987, 6971, 6013, 7075
6221, 6000, 6773, 6774, 6888
6222, 6016, 7020, 7031, 6015
6223, 6961, 6990, 7025, 6017
6224, 6989, 6961, 6017, 7016
6225, 6998, 7664, 7656, 6955
6226, 6996, 7009, 7012, 6985
6227, 7622, 7621, 7037, 7070
6228, 6038, 7155, 7149, 7128
6229, 6024, 6023, 7149, 7152
6230, 7098, 7135, 7113, 6025
6231, 6026, 7015, 6979, 6942
6232, 6917, 6027, 6942, 6979
6233, 6992, 6976, 6029, 6988
6234, 7567, 6016, 7040, 7030
6235, 7044, 7643, 7057, 6033
6236, 7044, 7059, 7669, 7005
6237, 6035, 7062, 7067, 7084
6238, 7070, 7077, 6021, 7622
6239, 6021, 7114, 7101, 7096
6240, 7144, 7129, 6039, 7163
6241, 6040, 7129, 7144, 7235
6242, 7063, 7485, 6041, 7094
6243, 6891, 6828, 7027, 7038
6244, 6028, 6775, 6776, 6896
6245, 6988, 6029, 7519, 7538
6246, 7060, 6044, 7079, 7087
6247, 6045, 7646, 7126, 7099
6248, 6033, 7086, 7059, 7044
6249, 7111, 7108, 7119, 7147
6250, 7105, 7133, 7132, 7665
6251, 7142, 7132, 6049, 7158
6252, 6037, 7169, 7139, 7125
6253, 7165, 6068, 7184, 7522
6254, 7184, 7109, 7188, 7204
6255, 6055, 6042, 6793, 6777
6256, 7140, 7137, 6060, 7170
6257, 7119, 6047, 7159, 7147
6258, 6062, 7146, 7164, 7670
6259, 7609, 7183, 7182, 7596
6260, 7191, 7596, 7182, 6064
6261, 7192, 7173, 6051, 7208
6262, 6886, 7503, 7160, 7487
6263, 6886, 7486, 7143, 7503
6264, 6782, 6777,  389,  390
6265, 6782, 6902, 6055, 6777
6266, 7052, 6057, 7529, 7528
6267, 7052, 6072, 7117, 7061
6268, 7092, 6073, 7097, 7107
6269, 7171, 6061, 7170, 7176
6270, 7200, 7671, 6061, 7171
6271, 7206, 7231, 6079, 7229
6272, 7234, 7237, 7311, 6066
6273, 7275, 6067, 6066, 7311
6274,  391,  392, 6778, 6794
6275, 6794, 6778, 6084, 6070
6276, 7095, 7014, 6085, 7039
6277, 7153, 7123, 7116, 6086
6278, 7185, 6075, 7197, 7627
6279, 7650, 7211, 7185, 7627
6280, 6091, 7225, 7224, 7661
6281, 7225, 7219, 7212, 7224
6282, 7240, 7223, 6077, 7659
6283, 7246, 7231, 6078, 7264
6284, 6095, 7285, 7279, 7257
6285, 6778, 7475, 6783, 6084
6286, 7156, 7162, 7179, 7557
6287, 7590, 7178, 6103, 7196
6288, 7196, 6103, 7209, 7218
6289, 7227, 6104, 7260, 7624
6290, 7253, 7636, 7251, 6105
6291, 7263, 7272, 7295, 7221
6292, 7291, 7266, 6092, 7295
6293, 7289, 7270, 6093, 7269
6294, 7288, 6095, 6094, 7594
6295, 7399, 6109, 7385, 7403
6296, 6110, 7226, 7249, 7416
6297, 7247, 6880, 7226, 6110
6298,  394,  395, 6779, 6795
6299, 6779, 6885, 6099, 6795
6300, 6101, 7198, 7179, 7162
6301, 7210, 6113, 7232, 6114
6302, 7228, 7209, 6103, 7563
6303, 6115, 7262, 7245, 7222
6304, 7276, 7253, 6105, 7280
6305, 7324, 7312, 7297, 6117
6306, 6108, 7313, 7325, 7328
6307, 7357, 7348, 7335, 7316
6308, 7417, 7377, 6121, 7405
6309, 7496, 7422, 7502, 6123
6310, 7290, 6907, 7256, 6123
6311, 7247, 6842, 6825, 6880
6312, 6784, 6912, 6111, 6779
6313, 7241, 6125, 7267, 7239
6314, 7250, 7258, 7236, 7232
6315, 6115, 7238, 7255, 7281
6316, 7319, 7310, 6116, 7617
6317, 7334, 7324, 6117, 7336
6318, 7342, 6119, 7353, 7347
6319, 6132, 7390, 7367, 7580
6320, 6134, 7302, 7327, 7431
6321, 7290, 7323, 6872, 6907
6322, 6823, 6824, 6872, 6135
6323,  397,  398, 6780, 6796
6324, 6893, 6124, 6796, 6780
6325, 7283, 6136, 7300, 6137
6326, 7267, 7271, 7254, 7239
6327, 7560, 7298, 7277, 7258
6328, 7255, 7286, 6127, 7281
6329, 7309, 7326, 7301, 7296
6330, 6141, 7341, 7578, 7320
6331, 7376, 7356, 6142, 7362
6332, 6143, 6130, 7359, 7376
6333, 7372, 7363, 6131, 7370
6334, 6145, 7410, 7380, 7369
6335, 6147, 7352, 7441, 7439
6336, 6148, 6900, 7333, 7446
6337, 6822, 6841, 7480, 6149
6338, 6797, 6785,  399,  400
6339, 7300, 6136, 7510, 7305
6340, 6152, 7338, 7329, 7303
6341, 6140, 7315, 6155, 7344
6342, 7326, 7344, 7339, 6141
6343, 7349, 7341, 6141, 7339
6344, 7396, 7387, 7388, 6159
6345, 7397, 7555, 7423, 6161
6346, 6161, 7454, 7427, 7397
6347, 7452, 6164, 6920, 7366
6348,  400,  401, 6786, 6797
6349, 6901, 6150, 6797, 6786
6350, 6151, 7358, 7322, 7509
6351, 7338, 7364, 7332, 7329
6352, 7350, 6169, 7340, 7321
6353, 7451, 7337, 7340, 6169
6354, 7449, 7444, 6171, 7411
6355, 6156, 7411, 7391, 7368
6356, 7378, 7381, 7393, 6173
6357, 7378, 6173, 7418, 7389
6358, 7413, 7406, 7407, 6174
6359, 6178, 6895, 7456, 7457
6360, 6820, 6840, 6895, 6179
6361, 6798, 6787,  402,  403
6362, 6167, 6166, 7360, 7425
6363, 7531, 7425, 6181, 6182
6364, 7365, 6182, 7498, 7500
6365, 7404, 7394, 7398, 6186
6366, 6187, 7402, 7394, 7404
6367, 7508, 7430, 7419, 7413
6368, 7467, 6189, 7469, 7463
6369, 7483, 7466, 6190, 7465
6370, 6191, 7465, 7468, 6889
6371,  403,  404, 6788, 6798
6372, 6908, 6180, 6788, 6192
6373, 6806, 6916, 6946, 6800
6374, 6807, 6897, 6193, 6832
6375, 6833, 6809, 6905, 6865
6376, 6809, 6810, 6877, 6905
6377, 7428, 6835, 7424, 7482
6378, 6813, 6892, 6197, 6836
6379, 6813, 6814, 6919, 6892
6380, 6889, 7468, 6951, 6818
6381, 6889, 6818, 6839, 6191
6382,    7,  217, 6298,  471
6383, 6221, 6220,  216,  215
6384, 6222, 6221,  215,  214
6385, 6204, 6232,  213,  212
6386, 6205, 6230,  210,  209
6387, 6206, 6235,  207,  206
6388, 6235, 6234,  208,  207
6389, 6207, 6231,  204,  203
6390,  202,  201, 6208, 6237
6391, 6258, 6289, 6322, 6317
6392, 6209, 6228,  199,  198
6393, 6238, 6289, 6258, 6208
6394, 6274, 6262, 6300, 6308
6395, 6239, 6210,  196,  195
6396, 6203, 6240,  194,  193
6397, 6281, 6288, 6314, 6312
6398, 6211, 6227,  191,  190
6399, 6242, 6211,  190,  189
6400, 6202, 6243,  188,  187
6401, 6212, 6263, 6275, 6202
6402,  186,  185, 6244, 6212
6403,  184,  183, 6213, 6225
6404,  182,  181, 6226, 6214
6405, 6259, 6283, 6330, 6325
6406, 6245, 6226,  181,  180
6407,  180,  179, 6215, 6245
6408,  178,  177, 6223, 6216
6409,  175,  174, 6218, 6217
6410, 6218, 6265, 6276, 6217
6411, 6246, 6218,  174,  173
6412, 6200, 6247,  172,  171
6413, 6250, 6249, 6219, 6299
6414, 6344, 6248, 6249, 6250
6415, 7474,  371, 6299, 6219
6416, 7474, 6219,  167,  166
6417,    6,  370, 7474,  166
6418, 6769, 6789,  376,  377
6419,  378,  379, 6790, 6770
6420,  390,  391, 6794, 6782
6421,  393,  394, 6795, 7475
6422,  396,  397, 6796, 6784
6423,  409,  410, 6832, 6806
6424,  412,  413, 6833, 6808
6425,  423,  424, 6837, 6814
6426,  426,  427, 6838, 6816
6427, 6819, 6839,  432,  433
6428, 6821, 6840,  435,  436
6429, 6841, 6823, 6135, 7480
6430,  440,  441, 6842, 6824
6431, 6801, 7477, 6843, 6098
6432,  455,  456, 6847, 6805
6433,  458,   11,  459, 6831
6434,  469, 6541, 6565,  468
6435, 6831,  459,  460, 6763
6436, 6265, 6218, 6246, 6297
6437, 6249, 6248,  169,  168
6438, 6260, 6277, 6200, 6201
6439, 6296, 6242, 6243, 6269
6440, 6295, 6239, 6240, 6268
6441,  212,  211, 6233, 6204
6442, 6220, 6343, 7478, 6298
6443,  209,  208, 6234, 6205
6444, 6290, 6233, 6230, 6256
6445,  206,  205, 6236, 6206
6446, 6205, 6278, 6256, 6230
6447,  203,  202, 6237, 6207
6448,  201,  200, 6238, 6208
6449, 6208, 6258, 6273, 6237
6450,  198,  197, 6229, 6209
6451, 6253, 6228, 6209, 6280
6452, 6210, 6262, 6274, 6229
6453, 6227, 6272, 6288, 6241
6454, 6296, 6269, 6306, 6302
6455, 6244, 6287, 6263, 6212
6456, 6259, 6214, 6226, 6283
6457, 6270, 6245, 6215, 6284
6458, 6217, 6224,  176,  175
6459, 6216, 6264, 6284, 6215
6460, 6286, 6223, 6224, 6267
6461, 6297, 6246, 6247, 6271
6462,  168,  167, 6219, 6249
6463, 6221, 6266, 6343, 6220
6464, 6285, 6222, 6232, 6292
6465, 6232, 6222,  214,  213
6466, 6222, 6285, 6266, 6221
6467, 6276, 6265, 6336, 6333
6468, 6267, 6224, 6217, 6276
6469, 6225, 6252, 6287, 6244
6470,  185,  184, 6225, 6244
6471,  192,  191, 6227, 6241
6472, 6228, 6253, 6289, 6238
6473,  200,  199, 6228, 6238
6474,  211,  210, 6230, 6233
6475, 6257, 6231, 6207, 6279
6476,  205,  204, 6231, 6236
6477, 6204, 6255, 6292, 6232
6478, 6206, 6254, 6293, 6235
6479, 6240, 6239,  195,  194
6480, 6268, 6240, 6203, 6281
6481, 6295, 6268, 6303, 6305
6482, 6243, 6242,  189,  188
6483, 6269, 6243, 6202, 6275
6484, 6270, 6284, 6326, 6329
6485, 6247, 6246,  173,  172
6486, 6200, 6277, 6271, 6247
6487, 6425, 6385, 6250, 6299
6488, 6251,  471, 6298, 7478
6489, 6428, 6251, 7478, 7497
6490, 6282, 6213, 6214, 6259
6491, 6321, 6320, 6287, 6252
6492, 6366, 6376, 6322, 6323
6493, 6317, 6307, 6273, 6258
6494, 6371, 6383, 6332, 6331
6495, 6311, 6335, 6278, 6294
6496, 6339, 6335, 6346, 6380
6497, 6341, 6342, 6285, 6292
6498, 6278, 6205, 6234, 6294
6499, 6290, 6256, 6339, 6340
6500, 6279, 6207, 6237, 6273
6501, 6257, 6279, 6327, 6331
6502, 6307, 6327, 6279, 6273
6503, 6283, 6226, 6245, 6270
6504, 6282, 6259, 6325, 6316
6505, 6334, 6337, 6271, 6277
6506, 6201, 6248, 6344, 6260
6507, 6312, 6303, 6268, 6281
6508, 6261, 6211, 6242, 6296
6509, 6280, 6274, 6308, 6318
6510, 6262, 6210, 6239, 6295
6511, 6306, 6319, 6354, 6365
6512, 6264, 6216, 6223, 6286
6513, 6347, 6348, 6333, 6336
6514, 6286, 6267, 6304, 6310
6515, 6266, 6387, 7497, 6343
6516, 6281, 6203, 6241, 6288
6517, 6358, 6360, 6303, 6312
6518, 6269, 6275, 6319, 6306
6519, 6367, 6352, 6330, 6329
6520, 6260, 6385, 6334, 6277
6521, 6302, 6313, 6261, 6296
6522, 6333, 6304, 6267, 6276
6523, 6294, 6234, 6235, 6293
6524, 6294, 6293, 6309, 6311
6525, 6284, 6264, 6301, 6326
6526, 6292, 6255, 7495, 6341
6527, 6348, 6374, 6304, 6333
6528, 6316, 6321, 6252, 6282
6529, 6313, 6315, 6272, 6261
6530, 6253, 6280, 6318, 6323
6531, 6331, 6332, 6291, 6257
6532, 6255, 6290, 6340, 7495
6533, 6254, 6291, 6332, 6328
6534, 6379, 6378, 6338, 6337
6535, 6425, 6299, 6485, 7481
6536, 6262, 6295, 6305, 6300
6537, 6410, 6362, 6360, 6413
6538, 6264, 6286, 6310, 6301
6539, 6325, 6330, 6352, 6353
6540, 6365, 6369, 6302, 6306
6541, 6360, 6362, 6305, 6303
6542, 6374, 6372, 6310, 6304
6543, 6275, 6263, 6324, 6319
6544, 6327, 6307, 6350, 6351
6545, 6408, 6355, 6363, 6411
6546, 6293, 6254, 6328, 6309
6547, 6370, 6345, 6311, 6309
6548, 6335, 6311, 6345, 6346
6549, 6315, 6314, 6288, 6272
6550, 6312, 6314, 6359, 6358
6551, 6369, 6406, 6407, 6368
6552, 6361, 6359, 6314, 6315
6553, 6375, 6364, 6321, 6316
6554, 6323, 6318, 6356, 6366
6555, 6366, 6404, 6409, 6376
6556, 6308, 6300, 6363, 6355
6557, 6320, 6324, 6263, 6287
6558, 6357, 6354, 6319, 6324
6559, 6364, 6373, 6320, 6321
6560, 6353, 6375, 6316, 6325
6561, 6323, 6322, 6289, 6253
6562, 6355, 6356, 6318, 6308
6563, 6403, 6354, 6357, 6418
6564, 6372, 6382, 6301, 6310
6565, 6399, 6398, 6352, 6367
6566, 6331, 6327, 6351, 6371
6567, 6283, 6270, 6329, 6330
6568, 6328, 6332, 6383, 6384
6569, 6271, 6337, 6338, 6297
6570, 6336, 6338, 6378, 6347
6571, 6265, 6297, 6338, 6336
6572, 7534, 6389, 7515, 6380
6573, 6380, 7515, 6340, 6339
6574, 6349, 6386, 6341, 7495
6575, 6386, 6427, 6342, 6341
6576, 6266, 6285, 6342, 6387
6577, 6346, 6345, 6391, 6388
6578, 6388, 6429, 6389, 7534
6579, 6378, 6379, 6458, 6392
6580, 6348, 6347, 6390, 6394
6581, 6394, 6393, 6374, 6348
6582, 7568, 6349, 7515, 6389
6583, 6307, 6317, 6377, 6350
6584, 6400, 6350, 6377, 6417
6585, 6433, 6432, 6395, 6400
6586, 6329, 6326, 6381, 6367
6587, 6353, 6352, 6398, 6401
6588, 6401, 6414, 6375, 6353
6589, 6354, 6403, 6405, 6365
6590, 6402, 6356, 6355, 6408
6591, 6356, 6402, 6404, 6366
6592, 6324, 6320, 6373, 6357
6593, 6418, 6357, 6373, 6419
6594, 6413, 6412, 6449, 6448
6595, 6412, 6358, 6359, 6415
6596, 6415, 6359, 6361, 6416
6597, 6315, 6313, 6368, 6361
6598, 6411, 6410, 6479, 6443
6599, 6300, 6305, 6362, 6363
6600, 7536, 6419, 6373, 6364
6601, 6368, 6407, 6416, 6361
6602, 6350, 6400, 6395, 6351
6603, 6382, 6372, 6396, 6423
6604, 6420, 6442, 7551, 6399
6605, 6369, 6368, 6313, 6302
6606, 6365, 6405, 6406, 6369
6607, 6309, 6328, 6384, 6370
6608, 6351, 6395, 6397, 6371
6609, 6420, 6399, 6367, 6381
6610, 6438, 6443, 5923, 6466
6611, 6317, 6322, 6376, 6377
6612, 6390, 6392, 6483, 6430
6613, 6337, 6334, 6426, 6379
6614, 6392, 6390, 6347, 6378
6615, 6382, 6381, 6326, 6301
6616, 6393, 6396, 6372, 6374
6617, 6424, 6384, 6383, 6422
6618, 6370, 6421, 6391, 6345
6619, 6425, 6426, 6334, 6385
6620, 6344, 6250, 6385, 6260
6621, 6387, 6342, 6427, 5926
6622, 6387, 5926, 6428, 7497
6623, 6429, 6388, 6391, 5925
6624, 6393, 6394, 5920, 7549
6625, 6421, 6370, 6384, 6424
6626, 6430, 6483, 6480, 5920
6627, 7549, 6431, 6396, 6393
6628, 6394, 6390, 6430, 5920
6629, 6432, 6437, 6397, 6395
6630, 6398, 6399, 7551, 6434
6631, 6371, 6397, 6422, 6383
6632, 6398, 6434, 6435, 6401
6633, 6417, 6377, 6376, 6409
6634, 6436, 6433, 6400, 6417
6635, 6414, 6401, 6435, 5921
6636, 6438, 6440, 6402, 6408
6637, 6441, 6439, 6405, 6403
6638, 6406, 6405, 6439, 6499
6639, 6407, 6406, 6499, 6445
6640, 6450, 6449, 6412, 6415
6641, 6411, 6363, 6362, 6410
6642, 6408, 6411, 6443, 6438
6643, 6417, 6409, 6446, 6436
6644, 6413, 6360, 6358, 6412
6645, 7591, 6472, 6495, 6492
6646, 6410, 6413, 6448, 6479
6647, 6364, 6375, 6414, 7536
6648, 6416, 6407, 6445, 6451
6649, 6439, 6441, 7583, 6464
6650, 6414, 5921, 6452, 7536
6651, 6452, 6453, 6419, 7536
6652, 6423, 6420, 6381, 6382
6653, 6423, 6396, 6431, 6454
6654, 6391, 6421, 6500, 5925
6655, 6422, 6397, 6437, 6455
6656, 6455, 6456, 6424, 6422
6657, 6427, 6386, 6457, 6459
6658, 6386, 6349, 7568, 6457
6659, 6460, 7484, 6428, 5926
6660, 6502, 6429, 5925, 6540
6661, 7564, 6461, 6434, 7551
6662, 6437, 6432, 6462, 7592
6663, 6462, 6432, 6433, 5924
6664, 6435, 6434, 6461, 7565
6665, 6420, 6423, 6454, 6442
6666, 6440, 6444, 6404, 6402
6667, 5924, 6433, 6436, 6469
6668, 6465, 6440, 6438, 6466
6669, 6436, 6446, 7593, 6469
6670, 6403, 6418, 6447, 6441
6671, 6499, 6439, 6464, 5922
6672, 6440, 6465, 6467, 6444
6673, 6468, 6474, 7585, 6493
6674, 6488, 6498, 7564, 6463
6675, 6409, 6404, 6444, 6446
6676, 6492, 6495, 7633, 6519
6677, 6418, 6419, 6453, 6447
6678, 6479, 6448, 6471, 6506
6679, 6470, 6473, 6451, 6445
6680, 6451, 6450, 6415, 6416
6681, 5922, 6470, 6445, 6499
6682, 6548, 6476, 6452, 5921
6683, 6477, 6455, 6437, 7592
6684, 6456, 6500, 6421, 6424
6685, 6379, 6426, 6484, 6458
6686, 5926, 6459, 6486, 6460
6687, 6645, 6514, 5934, 6597
6688, 6516, 6532, 6498, 6488
6689, 7565, 6461, 7584, 6501
6690, 6505, 6535, 6469, 7593
6691, 7626, 6528, 6562, 6504
6692, 6454, 6431, 6482, 6475
6693, 6488, 6463, 6475, 6511
6694, 6490, 6508, 6464, 7583
6695, 6489, 6503, 6529, 6517
6696, 6506, 6471, 7611, 6534
6697, 6466, 5923, 6503, 6489
6698, 6467, 6465, 6491, 6523
6699, 6453, 6452, 6476, 6474
6700, 6474, 6476, 6496, 7585
6701, 6523, 7634, 6560, 6505
6702, 6509, 6508, 6546, 6525
6703, 6472, 6473, 6494, 6495
6704, 6543, 6588, 6519, 7633
6705, 6473, 6472, 6450, 6451
6706, 6473, 6470, 7610, 6494
6707, 6520, 7633, 6495, 6494
6708, 6490, 6493, 6518, 6531
6709, 6507, 6482, 5920, 6480
6710, 6475, 6482, 6507, 6511
6711, 6493, 6490, 7583, 6468
6712, 6478, 6526, 6500, 6456
6713, 5923, 6443, 6479, 6506
6714, 6537, 5925, 6500, 6526
6715, 6539, 6515, 6558, 6566
6716, 6515, 6481, 6502, 6540
6717, 7494, 6512, 6563, 6538
6718, 6483, 6392, 6458, 6513
6719, 7481, 6485, 6850, 6512
6720, 7481, 6512, 7494, 6484
6721, 6485,  372,  373, 6850
6722, 6758, 6850,  373,  374
6723, 6515, 6539, 6486, 6481
6724,  469,  470, 6487, 6541
6725, 6530, 6516, 6488, 6511
6726, 6525, 6546, 6547, 7649
6727, 6517, 6542, 6491, 6489
6728, 6471, 7591, 6492, 7611
6729, 7585, 6496, 6521, 7605
6730, 6508, 6509, 5922, 6464
6731, 6501, 6524, 6548, 7565
6732, 7605, 6521, 6544, 7629
6733, 6497, 6504, 6522, 6551
6734, 6568, 6554, 6532, 6555
6735, 6461, 7564, 6498, 7584
6736, 6478, 6504, 6497, 6526
6737, 6476, 6548, 6524, 6496
6738, 6503, 5923, 6506, 6534
6739, 5924, 6510, 7631, 6462
6740, 6562, 6528, 7631, 7663
6741, 6480, 6527, 6536, 6507
6742, 6531, 6546, 6508, 6490
6743, 7610, 6509, 6525, 6533
6744, 6470, 5922, 6509, 7610
6745, 6510, 5924, 6469, 6535
6746, 6545, 6516, 6530, 6559
6747, 6480, 6483, 6513, 6527
6748, 6460, 6486, 6539, 6514
6749, 7484, 6645, 6541, 6487
6750, 6501, 7584, 6554, 6524
6751, 6523, 6491, 6542, 7634
6752, 6531, 6518, 6552, 7630
6753, 6534, 6561, 6529, 6503
6754, 6520, 6533, 6553, 6571
6755, 6496, 6524, 6549, 6521
6756, 6521, 6549, 6596, 6544
6757, 6589, 6580, 6591, 6601
6758, 6535, 6505, 6560, 6550
6759, 6532, 6554, 7584, 6498
6760, 7630, 6547, 6546, 6531
6761, 6537, 6497, 6551, 6564
6762, 6530, 6511, 6507, 6536
6763, 6528, 7626, 6477, 7592
6764, 6510, 6535, 6550, 7663
6765, 6569, 6517, 6529, 7651
6766, 6559, 6530, 6536, 6557
6767, 7629, 6552, 6518, 7605
6768, 6516, 6545, 6555, 6532
6769, 6549, 6568, 6615, 6596
6770, 6533, 6520, 6494, 7610
6771, 6519, 6556, 7611, 6492
6772, 6557, 6536, 6527, 6538
6773, 5925, 6537, 6564, 6540
6774, 6563, 6512, 5927, 6581
6775, 6578, 6557, 6538, 6563
6776, 5934, 6514, 6539, 6566
6777, 6583, 6540, 6564, 6580
6778, 5935, 6565, 6541, 6645
6779, 6542, 6517, 6569, 7653
6780, 6520, 6571, 6543, 7633
6781, 7651, 6573, 6577, 6569
6782, 6544, 6596, 6585, 6570
6783, 7630, 6552, 6570, 6567
6784, 6587, 6545, 6559, 5928
6785, 6572, 6555, 6545, 6587
6786, 6567, 6584, 6547, 7630
6787, 7649, 6553, 6533, 6525
6788, 7565, 6548, 5921, 6435
6789, 6549, 6524, 6554, 6568
6790, 6550, 7654, 6562, 7663
6791, 6522, 6575, 6591, 6551
6792, 6580, 6564, 6551, 6591
6793, 6556, 6561, 6534, 7611
6794, 6570, 6552, 7629, 6544
6795, 6553, 7649, 6584, 6571
6796, 6568, 6555, 6572, 6615
6797, 6556, 6519, 6573, 7651
6798, 5928, 6559, 6557, 6578
6799, 6558, 6515, 6540, 6583
6800, 6542, 7653, 6579, 7634
6801, 6579, 6592, 6560, 7634
6802, 6575, 6576, 7638, 6586
6803, 6504, 6562, 7637, 6522
6804, 5927, 6599, 6688, 6581
6805, 6583, 5933, 6574, 6558
6806, 6598, 6606, 6624, 6582
6807, 6569, 6577, 6607, 7653
6808, 6604, 7628, 6585, 6614
6809, 6567, 6570, 6605, 5930
6810, 6595, 6588, 6603, 6602
6811, 6573, 6519, 6588, 6595
6812, 6608, 6633, 6625, 5929
6813, 6615, 6572, 5929, 6614
6814, 6588, 6543, 6571, 6603
6815, 6577, 6573, 6595, 5931
6816, 6594, 6574, 5933, 6610
6817, 6575, 6586, 6601, 6591
6818, 7654, 6576, 7637, 6562
6819, 6607, 6577, 5931, 6629
6820, 7651, 6529, 6561, 6556
6821, 6582, 6611, 6597, 5934
6822, 6582, 5934, 6566, 6598
6823, 6584, 6567, 5930, 6609
6824, 6615, 6614, 6585, 6596
6825, 7637, 6576, 6575, 6522
6826, 6601, 6619, 6620, 6589
6827, 6656, 6646, 6633, 6648
6828, 5928, 6578, 6590, 6616
6829, 7639, 7638, 6592, 6579
6830, 7654, 6592, 7638, 6576
6831, 6613, 6612, 6593, 7653
6832, 6610, 5933, 6589, 6620
6833, 6594, 6606, 6598, 6574
6834, 6637, 7512, 6650, 6672
6835, 6600, 5932, 7639, 7647
6836, 6579, 7653, 7647, 7639
6837, 6586, 5932, 6619, 6601
6838, 6634, 6635, 6618, 6617
6839, 5931, 6595, 6602, 6628
6840, 6571, 6584, 6609, 6603
6841, 6643, 6604, 6614, 5929
6842, 6624, 6606, 6630, 7550
6843, 6582, 6624, 7533, 6611
6844, 6633, 6608, 6616, 6648
6845, 6617, 6618, 5930, 6605
6846, 6603, 6609, 6622, 6602
6847, 6631, 6610, 6620, 6644
6848, 6641, 7642, 6657, 6627
6849, 6629, 6640, 6647, 6626
6850, 6629, 6626, 6613, 6607
6851, 6641, 6593, 6612, 7642
6852, 6643, 5929, 6625, 7566
6853, 6590, 6671, 6648, 6616
6854, 5932, 6600, 6641, 6627
6855, 6627, 6636, 6619, 5932
6856, 6620, 6619, 6636, 6644
6857, 6606, 6594, 6621, 6630
6858, 6628, 6602, 6622, 7589
6859, 6638, 6623, 5942, 6651
6860, 7533, 6624, 7550, 6658
6861, 6632, 7582, 6643, 7566
6862, 6664, 6647, 6640, 5939
6863, 5939, 6640, 6652, 6663
6864, 6629, 5931, 6628, 6640
6865, 6659, 6649, 7579, 6667
6866, 6653, 6631, 6644, 6660
6867, 5941, 6621, 6631, 6653
6868, 6662, 6666, 6642, 6632
6869, 7582, 6632, 6642, 7586
6870, 6655, 6635, 6634, 5938
6871, 6618, 6635, 7589, 6622
6872, 6639, 6636, 6627, 6657
6873, 6696, 6660, 6639, 7648
6874, 6597, 6611, 7512, 6637
6875, 6646, 7566, 6625, 6633
6876, 6662, 6632, 7566, 6646
6877, 6636, 6639, 6660, 6644
6878, 6662, 6646, 5937, 6692
6879, 6647, 6664, 6654, 7641
6880, 5936, 6656, 6648, 6671
6881, 5938, 6634, 6642, 6666
6882, 6663, 6652, 6655, 6670
6883, 6668, 6649, 6659, 6680
6884, 6669, 6668, 6677, 5953
6885, 6623, 6638, 6650, 7512
6886, 6651, 5942, 6658, 6669
6887, 7543, 6745, 6746, 6661
6888, 6628, 7589, 6652, 6640
6889, 7619, 6678, 6697, 6674
6890, 6654, 6696, 7648, 7641
6891, 6670, 6655, 5938, 6676
6892, 7526, 6715, 6707, 5937
6893, 5937, 6646, 6656, 7526
6894, 6657, 7642, 7641, 7648
6895, 7533, 6658, 5942, 6623
6896, 6649, 6668, 6669, 6658
6897, 5940, 6665, 6653, 6660
6898, 6760, 5943, 6854, 6923
6899, 6638, 6651, 7543, 6661
6900, 7640, 6682, 6705, 6673
6901, 7640, 6654, 6664, 6682
6902, 6678, 7619, 5940, 6684
6903, 6666, 6685, 6676, 5938
6904, 5941, 6665, 6667, 7579
6905, 5952, 6677, 6668, 6680
6906, 6651, 6669, 5953, 7543
6907, 6675, 6695, 6689, 6686
6908, 6671, 6688, 6679, 5936
6909, 6854, 5943, 6661, 6746
6910, 5944, 6851, 6884, 6761
6911, 6674, 6694, 6680, 6659
6912, 6686, 6689, 6705, 6682
6913, 6675, 6663, 6670, 6683
6914, 7598, 6713, 6857, 6720
6915, 6696, 6684, 5940, 6660
6916, 6694, 6674, 6697, 6698
6917, 6704, 6693, 6681, 6694
6918, 6709, 6690, 6700, 6710
6919, 6683, 6702, 6695, 6675
6920, 6692, 6685, 6666, 6662
6921, 6685, 6703, 6691, 6676
6922, 6715, 6687, 6719, 6707
6923, 5936, 6679, 6687, 6715
6924, 6688, 6599, 6756, 6679
6925, 6710, 6705, 6689, 5950
6926, 6691, 5949, 6702, 6683
6927, 6693, 6708, 6713, 7598
6928, 5952, 6681, 6693, 7598
6929, 5950, 6689, 6695, 6711
6930, 6673, 6696, 6654, 7640
6931, 5951, 6678, 6690, 6709
6932, 5951, 6698, 6697, 6678
6933, 6704, 6694, 6698, 6723
6934, 6727, 6723, 6714, 6728
6935, 6703, 6699, 5948, 6701
6936, 6700, 6673, 6705, 6710
6937, 6768, 6722, 6706, 7546
6938, 6711, 6706, 6722, 6721
6939, 5936, 6715, 7526, 6656
6940, 6724, 6708, 6712, 5965
6941, 6713, 6708, 5966, 6717
6942, 6721, 6718, 5950, 6711
6943, 6857, 6713, 6717, 6731
6944, 6728, 6714, 6718, 6721
6945, 6723, 6727, 6712, 6704
6946, 5947, 6719, 6687, 6766
6947, 6716, 6799, 6859, 6725
6948, 6759, 6720, 6857, 6743
6949, 6767, 6719, 5947, 6878
6950, 6720, 6677, 5952, 7598
6951, 6728, 5964, 6733, 6727
6952, 6722, 6768, 6753, 5964
6953, 6721, 6722, 5964, 6728
6954, 6735, 6757, 6724, 5965
6955, 6725, 6859, 6726, 5963
6956, 6768, 6725, 5963, 6753
6957, 5965, 6712, 6727, 6733
6958, 6729, 6858, 5981, 6736
6959, 6757, 6751, 6730, 5966
6960, 6730, 6925, 6858, 6729
6961, 6731, 6736, 6734, 5967
6962, 7573, 6732, 6874, 7588
6963, 5963, 6726, 6732, 7573
6964, 6737, 6735, 5965, 6733
6965, 6741, 6894, 7552, 6738
6966, 6735, 5980, 6751, 6757
6967, 6764, 6736, 5981, 6945
6968, 6856, 6739, 6737, 6848
6969, 6747, 7527, 7544, 6740
6970, 6740, 7544, 6743, 5967
6971, 5983, 6894, 6741, 6849
6972, 6755, 6742, 6856, 5979
6973, 6759, 5953, 6677, 6720
6974, 7615, 7614, 6744, 6752
6975, 5954, 7527, 6747, 6762
6976, 6854, 6746, 7527, 5954
6977, 6762, 6747, 7552, 5968
6978, 7615, 6748, 6751, 5980
6979, 6751, 6748, 6925, 6730
6980, 7613, 6749, 5990, 7600
6981, 7635, 6744, 7614, 6742
6982, 6867, 6005, 7655, 6750
6983, 7635, 6750, 7655, 6744
6984, 5991, 6861, 6752, 6866
6985, 6753, 5963, 7573, 7574
6986, 5977, 6855, 6754, 6863
6987, 6755, 5979, 7608, 5990
6988, 5946, 6766, 6756, 6789
6989, 6850, 6758, 5927, 6512
6990, 6923, 6854, 5954, 6864
6991, 6760, 6923, 6903, 5944
6992, 6864, 6883, 6944, 5955
6993, 6945, 5981, 6861, 5991
6994, 6927, 6868, 5982, 6764
6995,  375,  376, 6789, 6765
6996, 6881, 5946, 6862, 6935
6997, 6770, 6769,  377,  378
6998,  379,  380, 6771, 6790
6999, 6772, 6771,  380,  381
7000,  382,  383, 6773, 6791
7001, 6774, 6773,  383,  384
7002, 6014, 6888, 6774, 6792
7003,  385,  386, 6775, 6792
7004, 6776, 6775,  386,  387
7005, 6042, 6896, 6776, 6793
7006,  388,  389, 6777, 6793
7007, 6070, 6084, 6879, 6940
7008, 6885, 6779, 6111, 7081
7009,  404,  405, 6781, 6788
7010, 7475, 6795, 6099, 6783
7011, 6893, 6780, 6785, 6918
7012, 6787, 6786,  401,  402
7013, 6798, 6788, 6180, 6875
7014, 5962, 6859, 6799, 6870
7015, 6192, 6921, 6800, 6946
7016,  442,  443, 6801, 6825
7017, 6826, 6802,  445,  446
7018, 6843, 6083, 7487, 6910
7019,  451,  452, 6803, 6829
7020, 6869, 6898, 6803, 6846
7021, 6194, 6897, 6807, 6808
7022, 6834, 6810,  415,  416
7023, 6811, 7476, 7434, 6196
7024, 7438, 6811, 6196, 7435
7025, 6812, 6836, 6197, 6914
7026, 6812, 6914, 7424, 6835
7027, 6899, 6815, 6816, 6871
7028, 6860, 6817,  428,  429
7029, 6839, 6818,  431,  432
7030, 6820, 6819,  433,  434
7031, 6840, 6820,  434,  435
7032, 6822, 6821,  436,  437
7033,  437,  438, 6841, 6822
7034,  438,  439, 6823, 6841
7035, 6824, 6823,  439,  440
7036,  441,  442, 6825, 6842
7037, 7479, 6069, 7486, 6886
7038, 6828, 6827,  448,  449
7039, 6844, 6827, 6913, 6069
7040, 6917, 7027, 6828, 6845
7041,  456,  457, 6830, 6847
7042, 7434, 6835, 7428, 6196
7043, 6826, 6844, 6069, 7479
7044, 6805, 6847, 6876, 6904
7045, 5979, 6856, 6848, 7574
7046, 6930, 6873, 6868, 5992
7047, 6890, 6851, 5944, 6903
7048, 6855, 6948, 6957, 7581
7049, 6754, 6855, 7581, 5978
7050, 6817, 6860, 6818, 6951
7051, 7604, 6945, 5991, 7620
7052, 6925, 6861, 5981, 6858
7053, 6975, 7548, 6933, 7537
7054, 5955, 6903, 6923, 6864
7055, 6867, 6932, 7625, 6949
7056, 6042, 6055, 6926, 6943
7057, 6926, 6056, 6970, 6943
7058, 6849, 6868, 6873, 5983
7059, 6898, 6869, 7008, 6971
7060, 7493, 7520, 7514, 6935
7061, 6871, 6199, 7472, 7473
7062, 7392, 7490, 7401, 7409
7063, 6875, 6180, 7401, 7490
7064, 6881, 5947, 6766, 5946
7065, 7026, 6879, 6084, 6783
7066, 6940, 6879, 6978, 6071
7067, 6935, 6862, 5960, 7493
7068, 6882, 6973, 6937, 5975
7069, 6894, 6934, 5968, 7552
7070, 6884,  467,  468, 6565
7071, 6083, 7479, 6886, 7487
7072, 7486, 7127, 6068, 7143
7073, 6001, 6938, 6963, 6982
7074, 6939, 6890, 6924, 5956
7075, 7433, 7430, 6892, 6919
7076, 7292, 7284, 6124, 6893
7077, 7456, 6164, 7452, 6163
7078, 6896, 6042, 6943, 6972
7079, 6897, 6194, 7498, 6182
7080, 7473, 7471, 6899, 6871
7081, 6899, 7471, 7442, 6198
7082, 7323, 7488, 6135, 6872
7083, 6165, 7384, 7491, 6901
7084, 6902, 6070, 6940, 6969
7085, 6183, 6865, 6905, 6184
7086, 6908, 7409, 7401, 6180
7087, 7039, 6909, 7069, 6100
7088, 7026, 6909, 7039, 6085
7089, 6082, 7199, 7160, 7503
7090, 6098, 6843, 6910, 7207
7091, 6911, 6000, 6938, 7499
7092, 6967, 7499, 6938, 6001
7093, 6912, 7265, 7136, 6111
7094, 7080, 7058, 6054, 7109
7095, 7424, 6914, 7415, 6187
7096, 6014, 6028, 6941, 6931
7097, 6931, 6941, 6029, 6976
7098, 6179, 7462, 7483, 6915
7099, 7360, 7492, 6181, 7425
7100, 6916, 7492, 7409, 6908
7101, 7331, 7314, 6918, 6150
7102, 7509, 7510, 7314, 7331
7103, 7437, 7433, 7442, 6189
7104, 7489, 7366, 6920, 6149
7105, 5972, 6922, 5958, 6928
7106, 6927, 6764, 6945, 7604
7107, 5957, 6953, 6965, 7511
7108, 7511, 6977, 6928, 5957
7109, 6974, 7554, 6968, 5994
7110, 7554, 6936, 6929, 6968
7111, 6962, 6930, 5992, 6986
7112, 6888, 6963, 6938, 6000
7113, 6952, 6932, 7613, 7600
7114, 6975, 7537, 7520, 5976
7115, 7548, 5977, 6863, 5962
7116, 5969, 6883, 6934, 6966
7117, 5961, 6881, 6935, 7514
7118, 5984, 6966, 6936, 7554
7119, 6954, 6937, 5976, 7520
7120, 6953, 6939, 5956, 6965
7121, 6972, 6943, 6970, 7519
7122, 7001, 6952, 5989, 6997
7123, 6887, 6947, 7600, 5990
7124, 6960, 5977, 7548, 6975
7125, 5988, 6957, 6948, 7000
7126, 6867, 6949, 6959, 6005
7127, 6874, 5978, 6887, 7608
7128, 5991, 6866, 6950, 7620
7129, 7019, 7003, 7001, 6997
7130, 6986, 5992, 6964, 7021
7131, 6957, 5988, 6997, 5989
7132, 7581, 6957, 5989, 6947
7133, 7002, 7004, 6958, 5969
7134, 6924, 6958, 7004, 5956
7135, 6998, 6959, 6018, 7005
7136, 6973, 6999, 5976, 6937
7137, 6952, 7001, 7003, 6004
7138, 6995, 6962, 6986, 7023
7139, 6976, 6982, 6963, 6931
7140, 6965, 5956, 7004, 5970
7141, 6984, 7024, 7022, 7002
7142, 6995, 6008, 7049, 7011
7143, 6056, 6991, 7529, 6983
7144, 6056, 6926, 6969, 6991
7145, 6057, 7007, 6983, 7529
7146, 7538, 6994, 6043, 7028
7147, 5976, 6999, 6960, 6975
7148, 7540, 6992, 7006, 7040
7149, 7015, 6026, 6987, 6025
7150, 7032, 5985, 7570, 7571
7151, 7618, 7049, 7091, 6009
7152, 7010, 5994, 6981, 7034
7153, 6994, 6983, 7007, 6043
7154, 7051, 6982, 7540, 6015
7155, 7540, 6982, 6976, 6992
7156, 6985, 6007, 7021, 6956
7157, 6988, 7538, 7028, 6030
7158, 6992, 6988, 6030, 7006
7159, 6989, 6018, 6959, 6949
7160, 7587, 7031, 7020, 6990
7161, 6071, 6978, 7048, 7528
7162, 7017, 6993, 7018, 6002
7163, 6967, 6993, 7000, 6999
7164, 6994, 7538, 7519, 6970
7165, 5993, 6962, 6995, 7011
7166, 7009, 6996, 7656, 6019
7167, 6996, 6006, 6955, 7656
7168, 5970, 7004, 7002, 7022
7169, 6990, 6004, 7003, 7607
7170, 7047, 7667, 7059, 7672
7171, 7005, 7669, 7664, 6998
7172, 7035, 7036, 6030, 7028
7173, 6013, 6971, 7008, 7506
7174, 6020, 7012, 7009, 7042
7175, 5995, 7010, 7034, 7071
7176, 6009, 7599, 6981, 7618
7177, 7599, 6009, 7576, 6010
7178, 7023, 6007, 7037, 7621
7179, 6007, 6985, 7012, 7037
7180, 5986, 7535, 7513, 7013
7181, 7504, 5987, 7516, 7205
7182, 7014, 7095, 7116, 7545
7183, 7048, 7014, 7545, 6072
7184, 7015, 6025, 7113, 7094
7185, 7016, 7045, 7057, 7643
7186, 6989, 7016, 7643, 6018
7187, 7019, 7017, 6002, 6003
7188, 6003, 7607, 7003, 7019
7189, 7025, 7020, 6016, 7567
7190, 6008, 6995, 7023, 7621
7191, 5985, 7022, 7024, 7570
7192, 5984, 6980, 7570, 7024
7193, 7055, 7030, 7040, 7006
7194, 7038, 7027, 6041, 7485
7195, 7035, 7041, 7060, 6031
7196, 5971, 7050, 7029, 5986
7197, 7076, 7030, 7055, 6031
7198, 7045, 7065, 7076, 6032
7199, 7031, 7068, 7051, 6015
7200, 7089, 5995, 7071, 7553
7201, 7043, 7033, 7072, 6044
7202, 7041, 7043, 6044, 7060
7203, 6010, 7071, 7034, 7599
7204, 6031, 7055, 7036, 7035
7205, 7053, 6008, 7621, 7622
7206, 6100, 7187, 6101, 7064
7207, 7040, 6016, 6015, 7540
7208, 7043, 7041, 6043, 7007
7209, 7067, 7062, 7042, 7047
7210, 6058, 7072, 7033, 7061
7211, 7057, 7045, 6032, 7090
7212, 6013, 7506, 7046, 7066
7213, 7047, 7672, 6034, 7067
7214, 6072, 7052, 7528, 7048
7215, 6002, 7018, 7051, 7068
7216, 6021, 7096, 7053, 7622
7217, 7091, 7053, 7096, 7093
7218, 7056, 7054, 7074, 7535
7219, 5996, 7074, 7054, 7089
7220, 7029, 7056, 7535, 5986
7221, 7086, 6033, 7112, 7134
7222, 7078, 7079, 6044, 7072
7223, 7061, 7117, 7092, 6058
7224, 7077, 7104, 7082, 7644
7225, 6020, 7042, 7062, 7104
7226, 7063, 6040, 7235, 6053
7227, 7064, 6101, 7162, 6086
7228, 7095, 7064, 6086, 7116
7229, 7030, 7076, 7065, 7567
7230, 6012, 7118, 7066, 7046
7231, 6003, 6002, 7068, 7587
7232, 7082, 7104, 7062, 6035
7233, 7089, 7553, 7103, 5996
7234, 7106, 7078, 7088, 6059
7235, 7008, 7073, 5998, 7506
7236, 7118, 6011, 7150, 7066
7237, 6031, 7060, 7087, 7076
7238, 6045, 7079, 7078, 7106
7239, 6032, 7076, 7087, 7099
7240, 7080, 6068, 7127, 7058
7241, 7081, 6111, 7136, 7110
7242, 7082, 6035, 7105, 7665
7243, 7644, 7082, 7665, 6036
7244, 7108, 7111, 7084, 6034
7245, 6058, 7092, 7107, 7088
7246, 7090, 7126, 7657, 7112
7247, 6033, 7057, 7090, 7112
7248, 6059, 7088, 7107, 7120
7249, 7093, 6022, 7102, 7576
7250, 6040, 7063, 7094, 7113
7251, 7114, 6021, 7077, 7644
7252, 7123, 7130, 6073, 7558
7253, 7547, 7135, 7098, 7150
7254, 5997, 7180, 7203, 7100
7255, 7101, 7114, 7121, 6037
7256, 7101, 6037, 7125, 6022
7257, 7547, 7150, 6011, 7115
7258, 7111, 7133, 7105, 7084
7259, 6059, 7120, 7148, 7122
7260, 7119, 7108, 7134, 6047
7261, 6068, 7080, 7109, 7184
7262, 7109, 6054, 7215, 7188
7263, 7198, 6101, 7187, 6112
7264, 6100, 7069, 7110, 7187
7265, 7134, 7112, 7657, 6046
7266, 7129, 7135, 7152, 6039
7267, 6024, 7547, 7115, 6023
7268, 6072, 7545, 7558, 7117
7269, 6073, 7092, 7117, 7558
7270, 7151, 7161, 6074, 7097
7271, 7132, 7142, 6036, 7665
7272, 6060, 7137, 7122, 7148
7273, 7124, 7122, 7137, 7646
7274, 6087, 7130, 7123, 7153
7275, 6046, 7657, 7126, 7646
7276, 6045, 7106, 7124, 7646
7277, 6069, 6913, 7127, 7486
7278, 6023, 7102, 7128, 7149
7279, 7130, 6087, 7167, 7151
7280, 6049, 6048, 7146, 7660
7281, 6049, 7132, 7133, 6048
7282, 7137, 7140, 6046, 7646
7283, 6024, 7152, 7135, 7547
7284, 7145, 7169, 6037, 7121
7285, 7140, 7170, 7159, 6047
7286, 7148, 7141, 7154, 6060
7287, 7141, 6075, 7662, 7154
7288, 7248, 6052, 7204, 7188
7289, 7248, 7235, 7144, 6052
7290, 6036, 7145, 7121, 7644
7291, 7159, 7186, 7164, 7147
7292, 7161, 7623, 7197, 6075
7293, 7173, 7163, 7175, 6051
7294, 7175, 7155, 6038, 7157
7295, 7156, 7167, 6087, 7153
7296, 7172, 7157, 7169, 7606
7297, 7158, 7166, 7183, 7609
7298, 6050, 7142, 7158, 7609
7299, 6061, 7186, 7159, 7170
7300, 7199, 7523, 7174, 7160
7301, 7161, 6075, 7141, 6074
7302, 7146, 6062, 7181, 7660
7303, 7521, 6081, 7299, 6082
7304, 6063, 7183, 7166, 7181
7305, 7590, 7156, 7557, 7178
7306, 7168, 5998, 7177, 7180
7307, 7606, 7169, 7145, 6050
7308, 7212, 7671, 7200, 7666
7309, 7595, 7596, 7191, 7208
7310, 7157, 7172, 6051, 7175
7311, 7163, 7173, 6052, 7144
7312, 7662, 7195, 7176, 7154
7313, 6076, 7171, 7176, 7195
7314, 7189, 6102, 7198, 6112
7315, 5987, 7203, 7180, 7516
7316, 7632, 7194, 7214, 6064
7317, 7182, 7183, 7632, 6064
7318, 7195, 7185, 7211, 6076
7319, 7670, 7164, 7186, 7671
7320, 7189, 6113, 7210, 6102
7321, 7671, 7212, 7190, 7670
7322, 7212, 7219, 7668, 7190
7323, 6065, 7192, 7208, 7191
7324, 7595, 6050, 7609, 7596
7325, 7192, 6065, 7234, 7252
7326, 7668, 7219, 7658, 7213
7327, 7214, 7194, 7223, 6078
7328, 7185, 7195, 7662, 6075
7329, 7218, 7209, 6104, 7227
7330, 7590, 7196, 7612, 6088
7331, 6089, 7627, 7197, 7612
7332, 6112, 7187, 7110, 7233
7333, 7523, 7199, 6096, 7524
7334, 7199, 6082, 7299, 6096
7335, 7171, 6076, 7666, 7200
7336, 7202, 7220, 7201, 7177
7337, 7201, 7505, 7205, 7516
7338, 7513, 7203, 5987, 7504
7339, 7203, 7513, 7535, 7074
7340, 6052, 7252, 7268, 7204
7341, 7231, 7206, 7214, 6078
7342, 6065, 7191, 7206, 7229
7343, 7652, 7645, 7243, 7224
7344, 7211, 7652, 7666, 6076
7345, 7223, 7194, 7658, 6077
7346, 6063, 7193, 7668, 7213
7347, 6090, 7211, 7650, 7216
7348, 7217, 6102, 7210, 7563
7349, 7178, 7217, 7563, 6103
7350, 6091, 7242, 7219, 7225
7351, 7220, 5973, 7505, 7201
7352, 7221, 7242, 6091, 7263
7353, 7659, 6092, 7266, 7240
7354, 7222, 7228, 7238, 6115
7355, 7211, 6090, 7645, 7652
7356, 7251, 7624, 7260, 6105
7357, 6090, 7216, 7227, 7624
7358, 6114, 7228, 7563, 7210
7359, 7238, 7228, 6114, 7577
7360, 7257, 7572, 6079, 7259
7361, 7230, 7239, 7254, 7244
7362, 6113, 7189, 7230, 7244
7363, 7250, 7244, 7254, 7273
7364, 7252, 7234, 6066, 7268
7365, 7063, 6053, 7215, 7485
7366, 7232, 7236, 7577, 6114
7367, 7229, 6079, 7572, 7237
7368, 7275, 7311, 6080, 7287
7369, 7239, 7230, 7233, 7241
7370, 7240, 7266, 6093, 7264
7371, 7267, 6125, 7283, 7271
7372, 7242, 7221, 7659, 6077
7373, 7261, 7661, 7636, 7253
7374, 7661, 7224, 7243, 7636
7375, 7245, 7262, 6116, 7280
7376, 6104, 7222, 7245, 7260
7377, 7270, 7246, 7264, 6093
7378, 7256, 7247, 6110, 7278
7379, 7525, 7403, 7416, 7249
7380, 6090, 7624, 7251, 7645
7381, 7255, 7238, 6126, 7282
7382, 6080, 7572, 7257, 7279
7383, 6126, 7236, 7258, 7277
7384, 7236, 6126, 7238, 7577
7385, 7259, 7246, 7270, 6094
7386, 7263, 6091, 7661, 7261
7387, 6067, 7275, 7274, 7522
7388, 7313, 7269, 7291, 6107
7389, 6108, 7289, 7269, 7313
7390, 7530, 6137, 7294, 6138
7391, 7273, 7271, 7530, 7560
7392, 6107, 7291, 7295, 7272
7393, 7335, 7288, 7594, 7316
7394, 7274, 7275, 7287, 6081
7395, 7165, 7274, 6081, 7521
7396, 7276, 7280, 6116, 7310
7397, 6117, 7276, 7310, 7336
7398, 6123, 7256, 7278, 7496
7399, 7296, 7281, 6127, 7309
7400, 7603, 7318, 7281, 7296
7401, 6126, 7277, 7293, 7282
7402, 7271, 7283, 6137, 7530
7403, 6136, 7283, 7284, 7292
7404, 7317, 7287, 6080, 7279
7405, 7286, 7293, 7315, 6140
7406, 7561, 7307, 7288, 7335
7407, 6108, 7316, 7594, 7289
7408, 7502, 7327, 7290, 6123
7409, 6139, 7293, 7277, 7298
7410, 7306, 7559, 7308, 6153
7411, 7221, 7295, 6092, 7659
7412, 7603, 6128, 7617, 7318
7413, 6106, 7276, 6117, 7297
7414, 7304, 7569, 7306, 7321
7415, 7317, 7299, 6081, 7287
7416, 6136, 7292, 7314, 7510
7417, 6141, 7320, 7301, 7326
7418, 7301, 6128, 7603, 7296
7419, 7422, 7496, 6122, 7517
7420, 7323, 7302, 6134, 7488
7421, 7303, 7329, 7308, 7294
7422, 7509, 7322, 7305, 7510
7423, 7294, 7308, 7559, 6138
7424, 7321, 7306, 6153, 7350
7425, 7541, 7399, 7403, 7525
7426, 7541, 7285, 7307, 7399
7427, 7326, 7309, 6140, 7344
7428, 7318, 7617, 6116, 7262
7429, 6080, 7311, 7237, 7572
7430, 7325, 7312, 7343, 6119
7431, 7330, 6155, 7315, 7575
7432, 7602, 6128, 7301, 7320
7433, 7334, 7336, 7616, 6129
7434, 7339, 7344, 7351, 6156
7435, 6154, 7304, 7321, 7340
7436, 7338, 7322, 7358, 7364
7437, 6152, 7305, 7322, 7338
7438, 7312, 7324, 6118, 7343
7439, 7328, 7325, 6119, 7342
7440, 7327, 7502, 7422, 7431
7441, 7357, 7328, 7342, 6120
7442, 6153, 7308, 7329, 7332
7443, 6151, 7509, 7331, 7491
7444, 6150, 6901, 7491, 7331
7445, 7352, 7333, 6134, 7431
7446, 6900, 6148, 7366, 7489
7447, 7355, 7334, 6129, 7359
7448, 6170, 7337, 7451, 7450
7449, 7455, 7556, 7337, 6170
7450, 7601, 7578, 6142, 7356
7451, 7351, 7344, 6155, 7455
7452, 7341, 7345, 6142, 7578
7453, 7361, 7354, 7346, 6130
7454, 7353, 7354, 7361, 6131
7455, 7363, 7347, 7353, 6131
7456, 6120, 7580, 7367, 7373
7457, 7373, 7348, 7357, 6120
7458, 7348, 7373, 7377, 6109
7459, 7349, 7339, 6156, 7368
7460, 6168, 7365, 6169, 7350
7461, 7351, 7449, 7411, 6156
7462, 7446, 7333, 7352, 6147
7463, 7354, 7353, 6119, 7343
7464, 7359, 6129, 7356, 7376
7465, 6129, 7616, 7601, 7356
7466, 7392, 7360, 6166, 7375
7467, 6143, 7383, 7371, 7597
7468, 7409, 7492, 7360, 7392
7469, 7597, 7371, 6144, 7370
7470, 7383, 7362, 7374, 6158
7471, 6143, 7376, 7362, 7383
7472, 6132, 7580, 7347, 7363
7473, 7364, 7531, 6168, 7332
7474, 6169, 7365, 6183, 7451
7475, 6172, 7368, 7391, 7507
7476, 6157, 7349, 7368, 6172
7477, 7369, 7372, 7379, 6145
7478, 6144, 7371, 7382, 7562
7479, 7372, 7370, 6144, 7379
7480, 6130, 6143, 7597, 7361
7481, 6121, 7377, 7373, 7367
7482, 7374, 7381, 7378, 6158
7483, 7388, 7379, 6144, 7562
7484, 6146, 7380, 7410, 7427
7485, 6132, 7369, 7380, 7390
7486, 6172, 7393, 7381, 6157
7487, 7386, 7562, 7382, 6158
7488, 6165, 6875, 7490, 7384
7489, 7420, 7385, 7417, 6122
7490, 6159, 7388, 7562, 7386
7491, 7555, 7387, 7396, 6160
7492, 6174, 7407, 7539, 7389
7493, 7386, 7389, 7539, 6159
7494, 7398, 7394, 6173, 7393
7495, 6187, 7415, 7421, 7402
7496, 6185, 7436, 7395, 6171
7497, 6186, 7398, 7507, 7395
7498, 7396, 7407, 7406, 6160
7499, 7397, 6145, 7387, 7555
7500, 6109, 7399, 7307, 7561
7501, 7420, 7416, 7403, 7385
7502, 6122, 7417, 7405, 7517
7503, 7422, 7517, 6133, 7431
7504, 7412, 6146, 7542, 7439
7505, 7532, 7508, 7413, 6174
7506, 7518, 7406, 7413, 7419
7507, 7439, 7441, 7414, 7412
7508, 6133, 7408, 7414, 7441
7509, 6175, 6160, 7406, 7518
7510, 6188, 7421, 7415, 7426
7511, 6174, 7389, 7418, 7532
7512, 7419, 7437, 7429, 7518
7513, 7420, 6122, 7496, 7278
7514, 7508, 7532, 7421, 6188
7515, 7430, 7508, 6188, 7426
7516, 6160, 6175, 7423, 7555
7517, 7482, 7424, 6187, 7404
7518, 7428, 6186, 7435, 6196
7519, 6189, 7467, 7429, 7437
7520, 7461, 7429, 7467, 6176
7521, 7437, 7419, 7430, 7433
7522, 6162, 7432, 7454, 7458
7523, 7436, 7435, 6186, 7395
7524, 7440, 7438, 6185, 7445
7525, 6195, 6811, 7438, 7440
7526, 6185, 6171, 7444, 7445
7527, 7443, 6184, 6905, 6877
7528, 7445, 7444, 7450, 6184
7529, 7445, 6184, 7443, 7440
7530, 7446, 6147, 7447, 6148
7531, 6163, 7452, 7447, 7453
7532, 7542, 7448, 6147, 7439
7533, 7453, 7448, 6162, 7501
7534, 7457, 7456, 6163, 7459
7535, 6176, 6161, 7423, 7461
7536, 7432, 6162, 7448, 7542
7537, 7556, 7455, 6155, 7330
7538, 6895, 6178, 7462, 6179
7539, 7458, 6177, 7501, 6162
7540, 7460, 6177, 7464, 7466
7541, 7457, 7460, 7466, 6178
7542, 6178, 7466, 7483, 7462
7543, 7464, 7463, 7469, 7470
7544, 7463, 7464, 6177, 7458
7545, 7466, 7464, 7470, 6190
7546, 7468, 7465, 6190, 7472
7547, 7470, 7469, 7471, 7473
7548, 7498, 6194, 6865, 7500
7549, 7480, 6135, 7488, 6900
7550, 7492, 6916, 6193, 6181
7551, 7493, 5960, 6906, 6954
7552, 7495, 6340, 7515, 6349
7553, 7503, 7143, 7521, 6082
7554, 5961, 7514, 7537, 6933
7555, 7517, 7405, 7408, 6133
7556, 6097, 7174, 7523, 7524
7557, 7249, 6097, 7524, 7525
7558, 6096, 7541, 7525, 7524
7559, 6745, 7544, 7527, 6746
7560, 6991, 6071, 7528, 7529
7561, 7560, 7530, 6138, 7298
7562, 7534, 6380, 6346, 6388
7563, 7546, 5949, 6701, 6716
7564, 7549, 5920, 6482, 6431
7565, 6649, 7550, 6630, 7579
7566, 7131, 7118, 6012, 7138
7567, 6154, 7556, 7330, 7575
7568, 7568, 6389, 6429, 6502
7569, 7569, 7304, 6139, 7298
7570, 7571, 7570, 6980, 7010
7571, 7574, 7573, 7588, 5979
7572, 6604, 7582, 7586, 7628
7573, 7587, 6990, 7607, 6003
7574, 5979, 7588, 6874, 7608
7575, 7590, 6088, 7167, 7156
7576, 7592, 6462, 7631, 6528
7577, 7593, 6446, 6444, 6467
7578, 7595, 7172, 7606, 6050
7579, 7616, 7319, 7602, 7601
7580, 6128, 7602, 7319, 7617
7581, 6504, 6478, 6477, 7626
7582, 7605, 6518, 6493, 7585
7583, 7613, 6750, 7635, 6749
7584, 6739, 7614, 7615, 5980
7585, 7618, 6981, 7011, 7049
7586, 7619, 6667, 6665, 5940
7587, 7623, 7161, 7151, 6088
7588, 6570, 6585, 7628, 6605
7589, 7632, 7183, 6063, 7213
7590, 5932, 6586, 7638, 7639
7591, 6626, 6647, 7641, 7642
7592, 7654, 6550, 6560, 6592
7593, 6019, 7656, 7664, 7667
7594, 7667, 7664, 7669, 7059
*Nset, nset=SENT-1_TOP
   9,  10, 406, 407, 408, 409, 410, 411, 412, 413, 414, 415, 416, 417, 418, 419
 420, 421, 422, 423, 424, 425, 426, 427, 428, 429
*Elset, elset=SENT-1_TOP
 5810, 5811, 5812, 5813, 5906, 5907, 5942, 5960, 5976, 5993, 5994, 6009, 6010, 6024, 6025, 6050
 6063, 6074, 6085, 6423, 6424, 6425, 6426, 7022, 7028
*Nset, nset=SENT-1_BOT
   4,   5, 106, 107, 108, 109, 110, 111, 112, 113, 114, 115, 116, 117, 118, 119
 120, 121, 122, 123, 124, 125, 126, 127, 128, 129
*Elset, elset=SENT-1_BOT
  72,  73, 148, 150, 258, 266, 267, 270, 271, 289, 307, 308, 324, 339, 353, 367
 380, 391, 683, 684, 685, 686, 688, 689, 690
*Nset, nset=SENT-1_ALL, generate
    1,  7672,     1
*Elset, elset=SENT-1_ALL, generate
    1,  7594,     1
** Section: Section-1
*Solid Section, elset=SENT-1_ALL, material=Material-1
,
*System
** 
** MATERIALS
** 
*Material, name=Material-1
*Density
1.,
*User material,Constants=<nProps>
<Gshear>,<Kbulk>,<lamL>,<Amp>,<nu_s0>,<nu_ss>,<dE>
*Depvar
<nSdv>
1,   LambdaBar, LambdaBar
2,   nu_local, nu_local
3,   Achainmax, Achainmax
** BOUNDARY CONDITIONS
** 
** Name: BOT_Fixed Type: Symmetry/Antisymmetry/Encastre
*Boundary
SENT-1_BOT, ENCASTRE
** Name: Temperature Type: Temperature
** ----------------------------------------------------------------
** 
** STEP: Load1
** 
*Step, name=Load1, nlgeom=YES, inc = 100000
*static
0.1, 10., 1.e-9, 10.
** 
** BOUNDARY CONDITIONS
** 
** Name: TOP_Load Type: Displacement/Rotation
*Boundary
SENT-1_TOP, 2, 2, 150.
** 
** OUTPUT REQUESTS
** 
*Restart, write, frequency=0
** 
** FIELD OUTPUT: F-Output-1
** 
*Output, field, number interval=10
*Node Output
NT, U
*Element Output, directions=YES
LE, S, SDV
** 
** HISTORY OUTPUT: H-Output-1
** 
*Output, history, number interval=25
*Node Output, nset=SENT-1_BOT
RF2, 
*End Step
** ----------------------------------------------------------------
** 
** STEP: Unload1
** 
*Step, name=Unload1, nlgeom=YES, inc = 100000
*static
0.1, 10., 1.e-9, 10.
** 
** BOUNDARY CONDITIONS
** 
** Name: TOP_Unload Type: Displacement/Rotation
*Boundary
SENT-1_TOP, 2, 2
** 
** OUTPUT REQUESTS
** 
*Restart, write, frequency=0
** 
** FIELD OUTPUT: F-Output-1
** 
*Output, field, number interval=10
*Node Output
NT, U
*Element Output, directions=YES
LE, S, SDV
** 
** HISTORY OUTPUT: H-Output-1
** 
*Output, history, number interval=25
*Node Output, nset=SENT-1_BOT
RF2, 
*End Step
** ----------------------------------------------------------------
** 
** STEP: Reload1
** 
*Step, name=Reload1, nlgeom=YES, inc = 100000
*static
0.1, 10., 1.e-9, 10.
**
** BOUNDARY CONDITIONS
** 
** Name: TOP_Reload Type: Displacement/Rotation
*Boundary
SENT-1_TOP, 2, 2, 250.
** 
** OUTPUT REQUESTS
** 
*Restart, write, frequency=0
** 
** FIELD OUTPUT: F-Output-1
** 
*Output, field, number interval=10
*Node Output
NT, U
*Element Output, directions=YES
LE, S, SDV
** 
** HISTORY OUTPUT: H-Output-1
** 
*Output, history, number interval=25
*Node Output, nset=SENT-1_BOT
RF2, 
*End Step
** ----------------------------------------------------------------
** 
** STEP: Unload2
** 
*Step, name=Unload2, nlgeom=YES, inc = 100000
*static
0.1, 10., 1.e-9, 10.
** 
** BOUNDARY CONDITIONS
** 
** Name: TOP_Unload Type: Displacement/Rotation
*Boundary
SENT-1_TOP, 2, 2
** 
** OUTPUT REQUESTS
** 
*Restart, write, frequency=0
** 
** FIELD OUTPUT: F-Output-1
** 
*Output, field, number interval=10
*Node Output
NT, U
*Element Output, directions=YES
LE, S, SDV
** 
** HISTORY OUTPUT: H-Output-1
** 
*Output, history, number interval=25
*Node Output, nset=SENT-1_BOT
RF2, 
*End Step
** ----------------------------------------------------------------
** 
** STEP: Reload2
** 
*Step, name=Reload2, nlgeom=YES, inc = 100000
*static
0.1, 10., 1.e-9, 10.
** 
** BOUNDARY CONDITIONS
** 
** Name: TOP_Load Type: Displacement/Rotation
*Boundary
SENT-1_TOP, 2, 2, 350.
** 
** OUTPUT REQUESTS
** 
*Restart, write, frequency=0
** 
** FIELD OUTPUT: F-Output-1
** 
*Output, field, number interval=10
*Node Output
NT, U
*Element Output, directions=YES
LE, S, SDV
** 
** HISTORY OUTPUT: H-Output-1
** 
*Output, history, number interval=25
*Node Output, nset=SENT-1_BOT
RF2, 
*End Step
** ----------------------------------------------------------------
** 
** STEP: Unload3
** 
*Step, name=Unload3, nlgeom=YES, inc = 100000
*static
0.1, 10., 1.e-9, 10.
** 
** BOUNDARY CONDITIONS
** 
** Name: TOP_Unload Type: Displacement/Rotation
*Boundary
SENT-1_TOP, 2, 2
** 
** OUTPUT REQUESTS
** 
*Restart, write, frequency=0
** 
** FIELD OUTPUT: F-Output-1
** 
*Output, field, number interval=10
*Node Output
NT, U
*Element Output, directions=YES
LE, S, SDV
** 
** HISTORY OUTPUT: H-Output-1
** 
*Output, history, number interval=25
*Node Output, nset=SENT-1_BOT
RF2, 
*End Step
** ----------------------------------------------------------------