*Heading
** Job name: 5 Model name: Model-1
** Generated by: Abaqus/CAE 2024
*Preprint, echo=NO, model=NO, history=NO, contact=NO
** ----------------------------------------------------------------
**
*Parameter
**
lc = 0.1
CP = 1.e0
tau = 1.
** 
Gshear = 0.19926
Kbulk  = 0.19926e3
lamL   = 2.04
Amp    = 0.6
nu_s0  = 0.6
nu_ss  = 0.95
dE   = 1.e-2
**
nSdv = 4
nProps = 7
**  
** PART INSTANCE: SENT-1
** 
*Node
      1,         250.,  -93.4000015
      2,   117.373077,  -93.4000015
      3,           0.,        -150.
      4,           0.,        -450.
      5,         250.,        -450.
      6,         250.,   93.4000015
      7,   117.373077,   93.4000015
      8,         150.,           0.
      9,         250.,         450.
     10,           0.,         450.
     11,           0.,         150.
     12,   245.087891,  -93.4000015
     13,   240.175781,  -93.4000015
     14,   235.263672,  -93.4000015
     15,   230.351562,  -93.4000015
     16,   225.439453,  -93.4000015
     17,   220.527344,  -93.4000015
     18,    215.61525,  -93.4000015
     19,    210.70314,  -93.4000015
     20,   205.791031,  -93.4000015
     21,   200.878922,  -93.4000015
     22,   195.966812,  -93.4000015
     23,   191.054703,  -93.4000015
     24,   186.142593,  -93.4000015
     25,   181.230484,  -93.4000015
     26,   176.318375,  -93.4000015
     27,   171.406265,  -93.4000015
     28,   166.494156,  -93.4000015
     29,   161.582047,  -93.4000015
     30,   156.669952,  -93.4000015
     31,   151.757843,  -93.4000015
     32,   146.845734,  -93.4000015
     33,   141.933624,  -93.4000015
     34,   137.021515,  -93.4000015
     35,   132.109406,  -93.4000015
     36,   127.197296,  -93.4000015
     37,   122.285187,  -93.4000015
     38,   110.641441,  -101.284111
     39,    103.38131,  -108.684433
     40,   95.6273575,  -115.565598
     41,   87.4166336,   -121.89476
     42,    78.788353,   -127.64167
     43,   69.7837296,  -132.778885
     44,   60.4457741,   -137.28186
     45,   50.8190918,  -141.129089
     46,   40.9496613,    -144.3022
     47,    30.884634,  -146.786026
     48,    20.672081,  -148.568726
     49,   10.3607855,  -149.641754
     50,           0.,        -160.
     51,           0.,        -170.
     52,           0.,        -180.
     53,           0.,        -190.
     54,           0.,        -200.
     55,           0.,        -210.
     56,           0.,        -220.
     57,           0.,        -230.
     58,           0.,        -240.
     59,           0.,        -250.
     60,           0.,        -260.
     61,           0.,        -270.
     62,           0.,        -280.
     63,           0.,        -290.
     64,           0.,        -300.
     65,           0.,        -310.
     66,           0.,        -320.
     67,           0.,        -330.
     68,           0.,        -340.
     69,           0.,        -350.
     70,           0.,        -360.
     71,           0.,        -370.
     72,           0.,        -380.
     73,           0.,        -390.
     74,           0.,        -400.
     75,           0.,        -410.
     76,           0.,        -420.
     77,           0.,        -430.
     78,           0.,        -440.
     79,          10.,        -450.
     80,          20.,        -450.
     81,          30.,        -450.
     82,          40.,        -450.
     83,          50.,        -450.
     84,          60.,        -450.
     85,          70.,        -450.
     86,          80.,        -450.
     87,          90.,        -450.
     88,         100.,        -450.
     89,         110.,        -450.
     90,         120.,        -450.
     91,         130.,        -450.
     92,         140.,        -450.
     93,         150.,        -450.
     94,         160.,        -450.
     95,         170.,        -450.
     96,         180.,        -450.
     97,         190.,        -450.
     98,         200.,        -450.
     99,         210.,        -450.
    100,         220.,        -450.
    101,         230.,        -450.
    102,         240.,        -450.
    103,         250.,  -440.094452
    104,         250.,  -430.188904
    105,         250.,  -420.283325
    106,         250.,  -410.377777
    107,         250.,  -400.472229
    108,         250.,  -390.566681
    109,         250.,  -380.661102
    110,         250.,  -370.755554
    111,         250.,  -360.850006
    112,         250.,  -350.944458
    113,         250.,  -341.038879
    114,         250.,  -331.133331
    115,         250.,  -321.227783
    116,         250.,  -311.322235
    117,         250.,  -301.416656
    118,         250.,  -291.511108
    119,         250.,   -281.60556
    120,         250.,  -271.700012
    121,         250.,  -261.794434
    122,         250.,  -251.888885
    123,         250.,  -241.983337
    124,         250.,  -232.077774
    125,         250.,  -222.172226
    126,         250.,  -212.266663
    127,         250.,  -202.361115
    128,         250.,  -192.455551
    129,         250.,  -182.550003
    130,         250.,   -172.64444
    131,         250.,  -162.738892
    132,         250.,  -152.833328
    133,         250.,   -142.92778
    134,         250.,  -133.022217
    135,         250.,  -123.116669
    136,         250.,  -113.211113
    137,         250.,  -103.305557
    138,   245.087891,   93.4000015
    139,   240.175781,   93.4000015
    140,   235.263672,   93.4000015
    141,   230.351562,   93.4000015
    142,   225.439453,   93.4000015
    143,   220.527344,   93.4000015
    144,    215.61525,   93.4000015
    145,    210.70314,   93.4000015
    146,   205.791031,   93.4000015
    147,   200.878922,   93.4000015
    148,   195.966812,   93.4000015
    149,   191.054703,   93.4000015
    150,   186.142593,   93.4000015
    151,   181.230484,   93.4000015
    152,   176.318375,   93.4000015
    153,   171.406265,   93.4000015
    154,   166.494156,   93.4000015
    155,   161.582047,   93.4000015
    156,   156.669952,   93.4000015
    157,   151.757843,   93.4000015
    158,   146.845734,   93.4000015
    159,   141.933624,   93.4000015
    160,   137.021515,   93.4000015
    161,   132.109406,   93.4000015
    162,   127.197296,   93.4000015
    163,   122.285187,   93.4000015
    164,   120.445137,   89.4034119
    165,   123.381165,   85.3058548
    166,   126.177856,   81.1119537
    167,   128.832047,   76.8264542
    168,   131.340744,   72.4541931
    169,   133.701111,   68.0000992
    170,   135.910477,   63.4692154
    171,    137.96637,   58.8666496
    172,    139.86644,   54.1976051
    173,   141.608551,   49.4673538
    174,   143.190735,   44.6812325
    175,   144.611221,   39.8446541
    176,   145.868378,   34.9630775
    177,     146.9608,   30.0420151
    178,   147.887253,   25.0870266
    179,   148.646698,   20.1037045
    180,   149.238266,   15.0976772
    181,   149.661285,   10.0746012
    182,   149.915298,   5.04014635
    183,   149.915298,  -5.04014635
    184,   149.661285,  -10.0746012
    185,   149.238266,  -15.0976772
    186,   148.646698,  -20.1037045
    187,   147.887253,  -25.0870266
    188,     146.9608,  -30.0420151
    189,   145.868378,  -34.9630775
    190,   144.611221,  -39.8446541
    191,   143.190735,  -44.6812325
    192,   141.608551,  -49.4673538
    193,    139.86644,  -54.1976051
    194,    137.96637,  -58.8666496
    195,   135.910477,  -63.4692154
    196,   133.701111,  -68.0000992
    197,   131.340744,  -72.4541931
    198,   128.832047,  -76.8264542
    199,   126.177856,  -81.1119537
    200,   123.381165,  -85.3058548
    201,   120.445137,  -89.4034119
    202,         250.,  -88.3513489
    203,         250.,  -83.3027039
    204,         250.,  -78.2540512
    205,         250.,  -73.2054062
    206,         250.,  -68.1567535
    207,         250.,  -63.1081085
    208,         250.,  -58.0594597
    209,         250.,  -53.0108109
    210,         250.,   -47.962162
    211,         250.,  -42.9135132
    212,         250.,  -37.8648643
    213,         250.,  -32.8162155
    214,         250.,  -27.7675667
    215,         250.,  -22.7189198
    216,         250.,  -17.6702709
    217,         250.,  -12.6216221
    218,         250.,  -7.57297277
    219,         250.,  -2.52432442
    220,         250.,   2.52432442
    221,         250.,   7.57297277
    222,         250.,   12.6216221
    223,         250.,   17.6702709
    224,         250.,   22.7189198
    225,         250.,   27.7675667
    226,         250.,   32.8162155
    227,         250.,   37.8648643
    228,         250.,   42.9135132
    229,         250.,    47.962162
    230,         250.,   53.0108109
    231,         250.,   58.0594597
    232,         250.,   63.1081085
    233,         250.,   68.1567535
    234,         250.,   73.2054062
    235,         250.,   78.2540512
    236,         250.,   83.3027039
    237,         250.,   88.3513489
    238,         250.,   103.305557
    239,         250.,   113.211113
    240,         250.,   123.116669
    241,         250.,   133.022217
    242,         250.,    142.92778
    243,         250.,   152.833328
    244,         250.,   162.738892
    245,         250.,    172.64444
    246,         250.,   182.550003
    247,         250.,   192.455551
    248,         250.,   202.361115
    249,         250.,   212.266663
    250,         250.,   222.172226
    251,         250.,   232.077774
    252,         250.,   241.983337
    253,         250.,   251.888885
    254,         250.,   261.794434
    255,         250.,   271.700012
    256,         250.,    281.60556
    257,         250.,   291.511108
    258,         250.,   301.416656
    259,         250.,   311.322235
    260,         250.,   321.227783
    261,         250.,   331.133331
    262,         250.,   341.038879
    263,         250.,   350.944458
    264,         250.,   360.850006
    265,         250.,   370.755554
    266,         250.,   380.661102
    267,         250.,   390.566681
    268,         250.,   400.472229
    269,         250.,   410.377777
    270,         250.,   420.283325
    271,         250.,   430.188904
    272,         250.,   440.094452
    273,         240.,         450.
    274,         230.,         450.
    275,         220.,         450.
    276,         210.,         450.
    277,         200.,         450.
    278,         190.,         450.
    279,         180.,         450.
    280,         170.,         450.
    281,         160.,         450.
    282,         150.,         450.
    283,         140.,         450.
    284,         130.,         450.
    285,         120.,         450.
    286,         110.,         450.
    287,         100.,         450.
    288,          90.,         450.
    289,          80.,         450.
    290,          70.,         450.
    291,          60.,         450.
    292,          50.,         450.
    293,          40.,         450.
    294,          30.,         450.
    295,          20.,         450.
    296,          10.,         450.
    297,           0.,         440.
    298,           0.,         430.
    299,           0.,         420.
    300,           0.,         410.
    301,           0.,         400.
    302,           0.,         390.
    303,           0.,         380.
    304,           0.,         370.
    305,           0.,         360.
    306,           0.,         350.
    307,           0.,         340.
    308,           0.,         330.
    309,           0.,         320.
    310,           0.,         310.
    311,           0.,         300.
    312,           0.,         290.
    313,           0.,         280.
    314,           0.,         270.
    315,           0.,         260.
    316,           0.,         250.
    317,           0.,         240.
    318,           0.,         230.
    319,           0.,         220.
    320,           0.,         210.
    321,           0.,         200.
    322,           0.,         190.
    323,           0.,         180.
    324,           0.,         170.
    325,           0.,         160.
    326,   10.3607855,   149.641754
    327,    20.672081,   148.568726
    328,    30.884634,   146.786026
    329,   40.9496613,     144.3022
    330,   50.8190918,   141.129089
    331,   60.4457741,    137.28186
    332,   69.7837296,   132.778885
    333,    78.788353,    127.64167
    334,   87.4166336,    121.89476
    335,   95.6273575,   115.565598
    336,    103.38131,   108.684433
    337,   110.641441,   101.284111
    338,    152.18541,   -97.862236
    339,   126.648666,   -98.031395
    340,   137.492722,  -99.7611465
    341,   142.786987,  -98.9482193
    342,   147.646973,  -98.4131165
    343,   156.749619,  -97.5881729
    344,   161.310623,  -98.1301422
    345,   166.127975,  -98.3567886
    346,   171.044235,  -98.3957443
    347,   175.934311,  -98.3724289
    348,   185.594009,  -98.3008499
    349,   190.438416,  -98.3275375
    350,   200.147797,  -98.5134735
    351,   205.031067,  -98.6533051
    352,   209.973007,  -98.7934418
    353,   214.965118,  -98.8960114
    354,   224.850677,  -98.9786301
    355,   229.842422,  -99.2878265
    356,   234.747375,  -99.7486343
    357,   239.705734,  -100.508987
    358,   244.592346,  -102.171631
    359,   121.278938,  -99.8005295
    360,    180.79007,  -98.3230591
    361,   219.900497,   -98.951622
    362,   195.296173,  -98.4069672
    363,   156.681992,  -101.244171
    364,   165.828796,  -103.426933
    365,   204.161362,  -103.995728
    366,   229.072052,  -104.964897
    367,   139.334381,  -105.466553
    368,   233.950607,  -105.866913
    369,   153.286713,  -102.617416
    370,   149.029266,  -103.678497
    371,   185.102707,  -103.306259
    372,   160.296951,  -103.613518
    373,   170.784348,   -103.50489
    374,   199.327866,  -103.741264
    375,   209.146912,  -104.250565
    376,   224.185211,  -104.301567
    377,   189.821198,  -103.316139
    378,   175.683868,  -103.469208
    379,   203.208405,  -109.577698
    380,   170.604965,  -108.846313
    381,   208.266006,  -109.770325
    382,    165.85202,  -108.563385
    383,   161.890244,  -107.944839
    384,   150.649689,  -110.189522
    385,   227.800507,  -110.459007
    386,   142.365646,  -110.787842
    387,   180.462936,  -103.370857
    388,   194.567169,     -103.473
    389,   180.162445,  -108.523674
    390,   193.732376,  -108.554047
    391,   207.690643,  -115.744064
    392,   159.436432,  -111.428459
    393,   170.509232,  -114.385422
    394,   189.195145,  -108.438232
    395,    175.56781,   -108.60688
    396,    184.55127,  -108.629814
    397,   198.362442,  -109.139091
    398,   213.553207,  -109.956413
    399,   223.898148,  -108.708763
    400,   137.858307,  -113.426384
    401,   196.956177,  -114.768837
    402,   192.696808,  -113.587769
    403,   183.874207,  -114.496635
    404,   188.803345,  -113.541458
    405,   124.338326,   -104.82589
    406,   215.464386,  -117.593651
    407,   146.728409,  -115.205238
    408,   224.773438,  -115.558472
    409,   219.317017,   -104.62114
    410,   134.076721,  -107.467834
    411,   194.523178,  -120.284187
    412,   190.091873,  -117.755157
    413,   128.590134,  -110.250381
    414,   208.973679,  -123.191238
    415,   219.419739,  -111.392097
    416,   151.867615,  -120.362846
    417,   231.172897,  -118.923401
    418,   142.097687,  -118.909317
    419,   117.897835,    -108.3918
    420,   220.470184,  -121.163864
    421,   177.307892,  -117.691666
    422,   200.918961,  -122.241501
    423,   123.609566,  -113.250954
    424,   233.658295,  -112.036537
    425,   226.291321,  -124.740967
    426,   132.787216,  -116.193863
    427,   163.317337,  -120.975052
    428,   190.979523,  -126.188263
    429,   241.431427,  -261.292053
    430,   241.501129,  -241.470795
    431,   241.331451,  -310.787292
    432,   241.327789,  -340.462341
    433,   241.347412,  -330.536224
    434,   241.347809,  -320.651245
    435,   241.382019,  -281.087036
    436,   241.459824,   -251.36116
    437,   241.251923,  -360.281464
    438,   240.972794,  -380.244934
    439,   240.527298,  -400.279602
    440,    240.31456,  -410.221985
    441,   241.309784,  -350.333557
    442,   240.073593,  -430.121277
    443,   241.353683,  -300.847321
    444,   241.375397,  -290.940613
    445,   240.008804,  -440.054901
    446,   241.408066,  -271.149841
    447,   241.561813,   -231.56543
    448,   241.668106,  -211.838959
    449,   241.707397,  -111.511269
    450,   241.778519,  -192.060532
    451,    241.84436,  -182.217346
    452,   241.510544,  -134.028046
    453,     241.9133,   -172.42247
    454,   242.129242,  -153.050201
    455,   241.631042,  -221.653442
    456,   239.468872,  -123.434914
    457,   9.11813927,   -260.52536
    458,    9.0759306,  -280.495941
    459,   9.05143166,  -310.529266
    460,   9.06340694,  -270.556152
    461,   9.51124763,  -230.269058
    462,   9.19148922,  -250.487473
    463,   9.70489407,  -209.864319
    464,   9.70043087,  -220.074326
    465,   9.32179832,   -240.43927
    466,   9.07606602,   -290.50592
    467,   9.05123615,   -300.55246
    468,   119.191162,  -441.096649
    469,   109.184669,  -441.092804
    470,   99.1868439,  -441.069122
    471,   89.1889191,  -441.028687
    472,   79.1881866,  -440.980896
    473,   69.2211151,  -440.916382
    474,    59.272747,  -440.838165
    475,   49.3522377,  -440.748657
    476,   29.5953598,  -440.504883
    477,   19.7058544,  -440.361938
    478,    9.8211174,  -440.205292
    479,   39.4606285,  -440.641541
    480,   9.15806961,  -350.462585
    481,   9.08871937,  -340.499329
    482,   9.05950546,  -330.496826
    483,   9.02940559,  -320.537628
    484,   149.190659,  -440.962128
    485,   129.171265,  -441.100494
    486,   175.612473,  -113.491249
    487,   205.387909,  -131.726379
    488,   221.829376,  -130.215729
    489,   136.886047,   -122.16275
    490,    157.30098,  -126.014725
    491,   182.926575,  -122.536156
    492,   120.201271,  -115.901466
    493,   171.295944,  -119.831963
    494,   198.200226,    -129.1371
    495,   241.134399,  -370.191559
    496,   240.726547,    -390.2117
    497,    242.09137,  -143.561813
    498,    241.72702,  -201.922501
    499,   240.136581,  -420.138275
    500,   242.043457,  -162.675919
    501,   232.918259,  -250.594437
    502,   232.691544,  -349.441254
    503,   229.979599,  -429.858612
    504,     232.7435,  -339.554047
    505,    232.73143,  -319.862854
    506,   230.913849,  -399.644867
    507,   233.373352,  -211.127167
    508,   231.431015,   -129.19191
    509,   233.796982,  -172.021362
    510,   232.857239,  -260.494812
    511,   233.129852,  -230.768509
    512,   232.737686,  -309.965881
    513,   232.759949,  -329.662262
    514,   232.812042,  -270.366455
    515,   232.776077,  -280.294922
    516,   233.268188,  -220.872269
    517,   233.729538,  -181.693741
    518,   232.763092,  -290.164185
    519,   233.004395,  -240.626602
    520,   232.758972,  -300.028778
    521,   9.21497059,  -360.501221
    522,   159.251694,  -440.797943
    523,   139.154083,  -441.063507
    524,   19.3850288,  -220.407669
    525,   18.0060387,   -291.24057
    526,   88.3492584,  -432.110657
    527,   229.943176,  -439.930511
    528,   9.57306004,  -179.188095
    529,   9.37266827,  -189.336411
    530,   18.2439423,  -251.288605
    531,    18.488615,  -241.213623
    532,   18.0039806,  -281.269989
    533,   179.534683,  -440.273132
    534,   68.4622345,  -431.812775
    535,   58.5840454,  -431.613068
    536,   29.2400703,  -430.898804
    537,    19.467205,  -430.634979
    538,   38.9759254,  -431.161652
    539,    98.324379,  -432.211548
    540,   108.291763,  -432.277527
    541,   118.255768,   -432.30307
    542,   17.9819927,  -331.151886
    543,   169.350174,  -440.546661
    544,   17.9571991,  -301.304657
    545,   18.0146885,  -271.344788
    546,    189.67598,  -439.998566
    547,   199.713715,  -439.795227
    548,   219.848694,   -439.79776
    549,   17.9467239,  -321.226776
    550,   18.0850296,  -261.387329
    551,   9.46753025,  -199.639847
    552,   18.8985386,  -230.954285
    553,   17.9293995,  -311.289307
    554,    128.20047,  -432.292603
    555,   9.28411007,  -370.524078
    556,   9.37809086,  -380.504883
    557,   78.3660965,  -431.988159
    558,   9.46736813,  -390.502899
    559,   9.53561878,  -400.497345
    560,   9.58724976,  -410.474609
    561,    9.6365509,   -420.42276
    562,    9.7016077,  -430.340912
    563,   48.7584305,  -431.393402
    564,   18.1328068,  -351.072968
    565,   18.0001965,  -341.152435
    566,   215.839294,  -127.298317
    567,   146.738281,  -124.532906
    568,   167.674011,  -127.871712
    569,   226.407669,  -132.425522
    570,   151.492126,   -130.40863
    571,   173.747589,  -125.480774
    572,   127.579582,  -118.898155
    573,   188.355576,   -132.38858
    574,   194.716232,  -136.194824
    575,   202.014893,  -139.442398
    576,   114.186569,  -113.588402
    577,   234.012512,    -162.4319
    578,   234.220139,  -144.373245
    579,   233.507187,  -201.247894
    580,   233.653168,  -191.403671
    581,   230.407196,  -409.694336
    582,   232.013016,  -379.362854
    583,   232.585403,  -359.326019
    584,   224.192429,   -279.28479
    585,   224.187164,  -289.159729
    586,   224.235107,  -259.435699
    587,   224.200974,  -269.308105
    588,   224.192261,  -299.030334
    589,   224.192352,  -308.915161
    590,   224.196777,  -318.755646
    591,   224.215683,  -328.562042
    592,   224.221985,  -338.350891
    593,   224.299591,  -249.472336
    594,   225.105698,  -210.050247
    595,   224.431198,  -239.505646
    596,    224.87709,  -219.758789
    597,   224.625702,   -229.57373
    598,   225.731567,  -171.395935
    599,   232.367416,  -369.254822
    600,   231.437057,  -389.407684
    601,   230.067657,  -419.724762
    602,   234.256622,   -153.15448
    603,   18.5021114,  -199.239746
    604,    138.14212,  -432.223694
    605,   158.189209,  -431.731018
    606,   18.2584934,    -361.1091
    607,   209.748032,  -439.714935
    608,   9.92021942,  -169.170914
    609,   26.7801666,  -282.297577
    610,   188.978928,  -429.852173
    611,   18.2616634,  -188.906067
    612,   178.616058,  -430.557404
    613,   18.6495953,  -381.042084
    614,   199.133667,  -429.278656
    615,    18.831274,   -391.02771
    616,   18.9877338,  -401.006989
    617,   19.1245289,  -410.952087
    618,   26.7181625,  -292.258392
    619,   26.6963272,  -312.181244
    620,   26.6564693,  -302.272308
    621,   28.9230309,  -421.199554
    622,   38.5513191,  -421.570465
    623,   48.2352333,   -421.93219
    624,   57.9868889,  -422.293274
    625,    67.772728,  -422.652588
    626,    26.689764,  -322.091949
    627,   77.5928497,  -422.985199
    628,   87.5223312,  -423.240784
    629,   97.4577637,  -423.425079
    630,   26.9289494,  -351.768555
    631,   26.6930656,  -331.977997
    632,   26.7459621,  -341.882843
    633,    107.34977,   -423.54129
    634,    117.22699,  -423.585236
    635,   127.093437,  -423.575653
    636,   26.8246822,  -272.415802
    637,   28.0805206,  -232.126465
    638,   27.5115242,  -242.421555
    639,    27.150795,  -252.493759
    640,   26.9283905,  -262.513092
    641,   18.4242783,  -371.118866
    642,   168.323456,  -431.220673
    643,   148.112411,  -432.046326
    644,   19.5628834,  -209.777298
    645,   233.702744,  -136.222092
    646,    226.51886,  -137.651733
    647,   141.107895,  -128.229721
    648,   162.124908,  -132.103622
    649,   212.527496,  -134.786652
    650,    190.00351,  -143.944763
    651,   156.095917,  -136.419266
    652,   173.759506,  -132.688904
    653,   198.814362,  -146.389252
    654,   219.595886,  -136.868698
    655,   225.999878,  -161.930695
    656,   225.354111,  -200.259171
    657,   131.202652,  -125.050293
    658,   225.660492,  -180.969467
    659,   220.147171,  -408.715912
    660,   223.716064,  -367.908783
    661,   216.399643,  -218.207397
    662,    223.10083,   -377.86676
    663,   223.999557,  -357.988831
    664,   215.679489,  -307.703186
    665,   215.683685,  -297.866333
    666,   215.702621,  -327.235626
    667,   215.717987,   -336.92395
    668,   215.990585,  -228.064865
    669,   215.703568,  -317.458252
    670,   215.664948,  -288.008423
    671,   215.624435,  -278.106384
    672,   215.552338,   -268.13623
    673,   224.146042,   -348.11084
    674,   221.045715,  -398.397369
    675,   215.676117,  -238.063232
    676,   222.124557,  -387.997742
    677,   219.701813,  -419.042725
    678,   215.482574,    -258.1586
    679,   215.490631,  -248.103928
    680,   226.474716,  -144.789505
    681,   30.5426769,  -209.232758
    682,   209.372726,  -429.200134
    683,   26.6150723,  -198.395569
    684,   219.665924,  -429.438904
    685,   136.946335,  -423.490417
    686,   35.6585426,  -263.867279
    687,   35.4781837,  -273.738525
    688,   27.1724091,  -361.765198
    689,   166.842484,  -422.090149
    690,    35.305542,  -323.047577
    691,   35.2533798,  -313.191772
    692,   19.2664471,  -420.834198
    693,   35.2706718,  -293.409241
    694,   10.2146254,  -159.250092
    695,   28.4193401,  -401.505188
    696,   28.1673183,  -391.547058
    697,   35.1943703,  -303.327759
    698,   35.3796387,  -342.607452
    699,   35.3107719,  -332.849304
    700,   187.607376,  -419.422577
    701,   35.3356361,  -283.567657
    702,   198.116043,  -418.005707
    703,   35.9254456,  -254.012268
    704,    47.822773,  -412.308929
    705,   38.2083244,  -411.842255
    706,   28.6518459,  -411.405792
    707,   76.9682465,  -413.927734
    708,   86.8402634,  -414.381927
    709,   116.182945,  -414.909485
    710,   57.5356064,  -412.792175
    711,   27.8647804,  -381.601318
    712,   67.2582245,  -413.320526
    713,   96.6903076,  -414.660309
    714,    106.43763,  -414.830597
    715,   27.5031528,  -371.716858
    716,   36.4145622,  -244.096863
    717,   37.2562485,   -234.08255
    718,   146.818314,  -423.257751
    719,   177.041107,   -420.91864
    720,   156.737198,  -422.803925
    721,   18.8931522,  -178.845749
    722,   29.0664768,  -221.433716
    723,   226.353531,  -152.954437
    724,   225.579422,  -190.514587
    725,   177.739471,  -140.399689
    726,   160.586945,  -142.373383
    727,   208.957733,  -418.236267
    728,   115.071411,  -121.738869
    729,   184.377213,  -137.201965
    730,   210.093414,  -143.465378
    731,   145.465912,  -134.438446
    732,   197.436691,  -153.599884
    733,   166.905411,   -137.92662
    734,   124.999695,  -127.499092
    735,   217.753952,  -170.580856
    736,   217.644684,  -180.089401
    737,   216.807083,  -208.533493
    738,   209.160248,  -407.133911
    739,   215.496262,  -356.340393
    740,     207.1707,     -226.138
    741,   215.108994,  -366.026459
    742,   214.316544,  -375.812653
    743,   207.199844,  -306.405579
    744,   207.218109,  -296.647736
    745,   207.150665,  -335.349579
    746,   207.183884,   -286.83493
    747,   207.061218,  -276.953522
    748,   212.974335,  -385.903534
    749,   207.204056,  -316.096344
    750,   207.190811,  -325.748718
    751,   206.701965,  -236.364334
    752,   211.002991,  -396.384399
    753,   215.644516,  -346.572083
    754,    206.83783,   -266.97348
    755,   206.511887,  -246.664841
    756,   206.587097,  -256.878113
    757,   41.0899734,  -214.081467
    758,   218.547943,  -152.287552
    759,   125.940811,  -414.941101
    760,   44.2898941,  -265.515564
    761,   43.8212814,  -284.926575
    762,   43.6504669,  -294.636017
    763,   44.0021629,  -275.246643
    764,   44.6777992,  -255.847183
    765,   37.5652313,  -201.012344
    766,   35.5617981,  -352.411774
    767,   164.813095,  -413.159882
    768,   43.6767387,   -314.16217
    769,   43.5666122,  -304.376495
    770,   43.8202744,  -323.970978
    771,   37.5959702,  -392.019135
    772,   37.9145889,  -401.991852
    773,   47.5304718,  -402.465668
    774,   37.1837578,  -382.073608
    775,   43.9502373,   -333.70285
    776,   115.273781,  -406.244354
    777,   57.2938766,  -402.985229
    778,   76.7014999,  -404.735565
    779,   67.0467148,  -403.681061
    780,   105.646233,  -406.035431
    781,   36.6089363,  -372.210266
    782,   155.018723,  -414.053741
    783,    145.32341,  -414.593994
    784,   45.3196754,   -246.18338
    785,   86.4616547,  -405.552856
    786,   96.1124649,  -405.815125
    787,   184.989365,  -409.152252
    788,   36.0056725,  -362.330231
    789,   46.3842888,  -236.567642
    790,   174.661545,  -411.621918
    791,   135.643204,  -414.881134
    792,   19.8742619,  -168.725082
    793,   38.7162514,  -224.001312
    794,   26.4342785,  -188.819687
    795,   211.521133,  -151.478561
    796,   171.156403,  -144.346954
    797,   181.642578,  -147.520142
    798,   135.061584,  -131.481857
    799,   164.885559,  -148.479645
    800,   149.894699,  -140.634186
    801,    190.70195,  -153.094604
    802,   203.787415,  -155.486069
    803,   128.716568,   -134.27179
    804,   121.823006,  -121.040558
    805,   107.498863,  -122.504089
    806,    218.03627,  -161.137009
    807,   218.678314,  -144.319229
    808,    209.57489,  -179.112946
    809,   217.226791,  -198.932297
    810,   207.824066,  -216.080338
    811,   206.933167,  -354.425201
    812,   196.445267,  -404.790771
    813,   206.537582,  -363.850067
    814,   204.182693,  -383.056335
    815,    205.69075,  -373.307648
    816,   198.769119,  -305.126282
    817,   197.605301,  -234.491394
    818,   198.702118,  -314.715729
    819,   198.507034,  -333.704773
    820,   201.332657,  -393.220398
    821,     198.6138,  -324.240204
    822,   198.829605,  -295.473572
    823,    198.79686,  -285.759369
    824,    207.08371,   -344.87674
    825,   198.573074,   -275.98584
    826,    197.37413,  -245.265472
    827,   50.6593628,  -218.008499
    828,   52.5232201,  -276.876556
    829,   52.2137756,  -286.375641
    830,   124.912483,  -406.402069
    831,   198.141113,  -266.040619
    832,   51.9397011,  -295.864471
    833,   52.8770027,  -267.360779
    834,   43.9452095,  -343.299194
    835,   54.1428223,  -248.505478
    836,   51.7972069,  -305.331848
    837,   53.3913651,  -257.920166
    838,   48.1404533,  -227.100906
    839,   51.8973465,  -314.918854
    840,    162.35994,  -404.477478
    841,    52.288269,  -324.660919
    842,   47.2677231,   -392.39621
    843,   46.7920036,  -382.340363
    844,   114.744598,  -397.587921
    845,   153.090073,  -405.495422
    846,   57.2788315,  -392.719116
    847,   45.8216858,  -372.403412
    848,    67.391571,  -393.410339
    849,   44.7306862,  -362.577332
    850,   77.1927261,  -395.434296
    851,   105.095497,  -397.002411
    852,   171.455994,  -402.777039
    853,   86.5211258,  -396.998138
    854,   55.2971191,  -239.273987
    855,   143.772766,  -406.123535
    856,   95.6192169,  -396.611206
    857,    44.005806,  -352.829712
    858,   180.206909,   -399.91452
    859,   197.631348,  -255.797668
    860,   134.408829,  -406.423615
    861,   45.1235657,  -205.365463
    862,   27.7708874,  -179.266678
    863,   20.6274452,  -158.512863
    864,    184.20192,  -154.984772
    865,   175.018143,    -151.0065
    866,    203.14592,  -161.167862
    867,   169.127899,  -154.699188
    868,   139.164368,  -138.143692
    869,   191.611359,  -160.125412
    870,   105.489319,  -134.609024
    871,   197.241165,  -160.287155
    872,   154.402466,  -146.669968
    873,    116.12085,  -138.980637
    874,   209.738174,  -159.830582
    875,   209.561768,  -188.074371
    876,   210.058899,  -169.773087
    877,   208.391418,   -206.55101
    878,   198.269058,  -223.722336
    879,   217.565323,  -189.380829
    880,     198.3022,  -352.452057
    881,   197.993103,  -361.604218
    882,   192.788788,  -388.092255
    883,   197.278259,  -370.627991
    884,   195.747803,  -379.495575
    885,   189.769684,  -332.103729
    886,   189.945023,  -322.737885
    887,   190.560608,  -294.395477
    888,   198.432663,  -343.130829
    889,   190.178223,  -313.349701
    890,   190.428024,  -303.925476
    891,   190.561127,  -284.854523
    892,   188.056992,  -244.032959
    893,   57.0611153,  -230.326935
    894,   59.9319458,  -222.000916
    895,   53.8505707,  -209.543213
    896,   61.0394287,  -278.594055
    897,   63.9732285,  -241.931305
    898,   60.6447144,  -287.894409
    899,   124.218132,  -397.976837
    900,     61.44487,  -269.283844
    901,   60.2279892,  -297.125305
    902,   52.7978935,  -334.473358
    903,    59.911438,  -306.168823
    904,   59.8553543,  -315.336395
    905,   190.216995,  -275.339569
    906,   159.753067,  -396.055939
    907,   151.105789,  -397.111542
    908,   55.1621399,  -371.868256
    909,   53.1816406,   -362.15271
    910,   114.902336,  -389.137299
    911,   167.959854,  -394.460236
    912,   68.9357376,  -381.335938
    913,   52.0136032,  -352.976837
    914,   105.242218,  -388.009644
    915,   79.5148849,  -386.403961
    916,   62.8305206,  -250.909943
    917,   52.7898865,  -344.119232
    918,   94.3196716,  -385.766724
    919,   142.288132,  -397.831512
    920,   175.332031,   -391.88678
    921,   133.397888,  -398.131561
    922,   188.685455,  -255.121384
    923,   62.0108261,  -260.065033
    924,   189.552322,  -265.546936
    925,   49.1085587,  -196.431686
    926,   34.0136642,  -189.601898
    927,   32.5986977,  -196.593002
    928,   29.6770878,  -168.993271
    929,   73.4891205,  -142.227707
    930,    43.194664,  -157.794388
    931,   54.0522385,  -151.084961
    932,   31.2994347,  -157.924866
    933,   84.4176178,   -138.92337
    934,   63.7755089,  -146.247864
    935,   178.565277,  -157.850098
    936,   186.411072,  -162.250519
    937,   173.159073,   -160.79953
    938,   196.622437,  -166.729767
    939,   132.660965,  -141.420975
    940,   192.549606,  -165.153687
    941,   143.496841,  -144.786942
    942,   158.981674,  -152.628876
    943,   38.8593178,  -170.601044
    944,   119.904945,  -145.559631
    945,   111.806099,   -131.59285
    946,   201.896317,  -186.628174
    947,   100.559776,  -125.722618
    948,   199.364563,  -213.481644
    949,   209.056808,  -197.230423
    950,   202.959702,   -168.98262
    951,   188.713943,  -232.649033
    952,   189.438477,  -359.537659
    953,    189.58783,  -350.601257
    954,   187.621674,   -395.32132
    955,   189.003586,   -368.12619
    956,   185.705688,   -383.04245
    957,   187.956085,  -376.083649
    958,   180.943466,   -330.62323
    959,   189.682449,  -341.455109
    960,    68.131218,  -227.098923
    961,   182.489975,  -293.427002
    962,   181.210815,  -321.279236
    963,   182.543564,  -284.158142
    964,   64.2824173,  -213.377609
    965,   181.619385,   -311.95929
    966,   65.3980255,  -233.536667
    967,   69.2038574,  -289.488068
    968,   69.6007614,  -280.314301
    969,    68.665947,  -298.558685
    970,   71.2263947,  -253.180008
    971,   124.048058,  -389.693695
    972,   60.5278625,    -324.8078
    973,   181.972824,  -275.112732
    974,   68.1567307,  -307.097748
    975,   57.0615578,  -382.158203
    976,     67.34095,  -315.416504
    977,   157.257538,  -387.810974
    978,   64.2967529,  -369.785614
    979,   164.789017,  -386.621674
    980,   61.2235489,  -360.354462
    981,   149.170395,  -388.819824
    982,   107.152504,  -379.973907
    983,   63.1198196,  -346.276154
    984,   77.4198914,   -373.63324
    985,   61.7425995,  -334.721802
    986,   171.275604,  -384.705322
    987,   99.1848526,  -376.204041
    988,   140.937881,  -389.722595
    989,    85.444046,  -378.835358
    990,   132.764191,  -390.032654
    991,   177.785034,  -242.815338
    992,   69.9795074,   -271.17392
    993,   70.4839935,   -262.14212
    994,   57.0344734,  -200.697861
    995,   181.149948,  -265.642761
    996,   181.374176,   -165.19165
    997,   136.791534,  -148.896286
    998,   148.210571,  -151.098282
    999,   163.686783,  -158.547989
   1000,    114.62648,   -148.07309
   1001,   99.1981659,  -139.143524
   1002,   199.655045,  -204.024078
   1003,   189.067352,  -220.488449
   1004,   180.452087,   -230.93425
   1005,   180.048309,  -255.301575
   1006,   72.8803482,  -221.031036
   1007,     180.6922,   -357.77182
   1008,   180.754013,   -348.97937
   1009,   176.189728,   -381.72049
   1010,   180.446945,  -379.443756
   1011,   73.9600449,  -234.708023
   1012,   180.818024,  -339.927917
   1013,   172.410202,  -319.818146
   1014,   72.3112717,  -244.263672
   1015,   174.911957,  -283.770477
   1016,   173.780579,  -301.232361
   1017,   77.9477768,  -291.172546
   1018,   173.025894,  -310.459351
   1019,   78.2574387,   -281.97168
   1020,   173.531738,  -275.502594
   1021,     68.38694,  -324.084595
   1022,    77.119545,  -300.087402
   1023,   115.809189,        -381.
   1024,   77.5435944,   -309.03653
   1025,   155.250854,  -379.528168
   1026,    162.68277,  -378.981995
   1027,    72.370285,   -365.36319
   1028,   68.6151962,  -356.208466
   1029,   73.0235672,   -342.94928
   1030,   147.233536,  -380.406921
   1031,   168.443558,  -378.940308
   1032,   100.766251,   -363.30127
   1033,    70.356514,  -333.213928
   1034,    132.70903,  -382.143433
   1035,   139.566345,  -381.839691
   1036,   91.5161667,  -369.134155
   1037,   78.5043793,  -272.931152
   1038,   63.4169197,  -204.603073
   1039,   79.5134506,  -255.466904
   1040,   78.8687744,  -264.090515
   1041,   52.8565521,  -187.486252
   1042,   172.535843,  -266.332214
   1043,   44.2736816,  -183.702652
   1044,   92.8288345,   -131.19104
   1045,   129.237457,  -152.976517
   1046,   153.236755,  -157.040756
   1047,   117.481171,  -154.507736
   1048,   110.296989,  -141.970291
   1049,    192.07547,  -191.394501
   1050,   189.329895,  -168.199799
   1051,   200.623047,  -194.887695
   1052,   191.764053,  -211.070206
   1053,   181.237259,  -221.018219
   1054,   169.385574,  -235.697556
   1055,   79.3337784,  -228.223038
   1056,   171.793243,  -256.902222
   1057,   171.740402,  -347.602112
   1058,   171.696381,  -356.415283
   1059,   171.664154,  -364.954712
   1060,   171.811844,  -338.552979
   1061,   82.5666656,  -239.840012
   1062,   172.019882,  -329.265625
   1063,   72.5227966,  -208.730896
   1064,   80.6177292,   -247.24054
   1065,   76.0554657,  -322.015106
   1066,   86.6539612,   -292.90097
   1067,   86.8851242,  -283.419342
   1068,   164.361679,  -308.696808
   1069,   168.680481,  -284.117218
   1070,   166.758835,  -290.695496
   1071,   105.669815,  -369.334473
   1072,   85.7887268,  -303.598236
   1073,    154.15271,  -371.526581
   1074,   145.338959,  -372.227966
   1075,   80.2575836,  -360.857391
   1076,   87.0053253,  -274.448486
   1077,   171.720184,  -373.763245
   1078,   76.8509674,  -352.108643
   1079,    82.295929,  -339.308136
   1080,   135.560394,  -374.132294
   1081,   125.272896,  -372.881592
   1082,   78.8337708,  -330.346069
   1083,   89.0892181,  -357.858124
   1084,   165.408371,  -299.370422
   1085,   63.1224022,  -191.558731
   1086,   87.7221909,  -257.668884
   1087,   163.941177,  -277.756165
   1088,   55.4463882,  -178.434875
   1089,   47.2479706,  -174.416702
   1090,   93.8853302,  -145.081207
   1091,   160.410202,  -171.597168
   1092,   147.823944,  -162.012283
   1093,   183.086609,   -186.42395
   1094,   110.669975,  -151.589172
   1095,   190.195541,  -201.533371
   1096,   172.457367,  -227.472397
   1097,   182.680496,  -214.187927
   1098,   169.467911,  -247.926376
   1099,    85.643837,  -234.035431
   1100,   79.5172882,  -214.810532
   1101,   163.594086,  -257.871216
   1102,   162.608307,  -355.373169
   1103,   162.718872,  -363.862854
   1104,   162.940689,  -327.906006
   1105,   163.546738,  -318.294098
   1106,   88.7536316,  -250.183563
   1107,   90.1868057,   -243.56604
   1108,   82.8647995,  -317.969147
   1109,   95.9319916,  -302.935181
   1110,   95.6036682,  -293.692871
   1111,   107.813316,  -359.871094
   1112,   95.6425171,  -284.490417
   1113,    153.62059,  -363.409302
   1114,   144.429749,  -363.662964
   1115,   86.2385406,  -348.203857
   1116,   90.6442413,  -334.864197
   1117,   135.084381,  -364.210663
   1118,   125.384613,  -364.022888
   1119,   86.4241486,  -326.534454
   1120,   114.644997,  -363.926147
   1121,   159.227707,  -287.237457
   1122,   68.9512939,  -200.756348
   1123,   95.5833817,  -275.624298
   1124,    155.83226,  -306.686493
   1125,   157.122467,  -296.856384
   1126,   155.730194,  -275.787689
   1127,   95.4388199,  -267.156036
   1128,   63.8729553,  -180.748413
   1129,   58.3117599,  -170.593307
   1130,   168.435806,  -165.324936
   1131,   149.994339,  -173.296356
   1132,   141.992157,  -155.819534
   1133,   186.033768,  -175.127548
   1134,   119.760391,  -162.853577
   1135,   105.081467,  -146.112305
   1136,    185.41127,  -207.539536
   1137,   173.769302,  -218.711227
   1138,   163.130508,  -230.902405
   1139,   85.0003281,  -223.267075
   1140,   163.711349,  -250.918503
   1141,   91.8084564,  -237.962982
   1142,   152.816101,  -266.229584
   1143,   153.165665,  -345.617157
   1144,    78.900856,   -206.09346
   1145,   153.149658,   -336.23819
   1146,    96.797081,  -252.530762
   1147,   154.710754,  -316.573669
   1148,   89.8695145,  -314.201385
   1149,   153.699295,  -326.513123
   1150,   104.739899,  -302.892761
   1151,   144.051468,  -354.681458
   1152,   134.964874,  -354.947784
   1153,    126.06543,  -354.832855
   1154,   93.2473679,  -322.664673
   1155,   97.0696716,   -329.45462
   1156,   116.932449,  -354.102112
   1157,   104.491753,  -276.299194
   1158,   97.7708054,   -245.91745
   1159,   73.4822617,  -189.262543
   1160,   103.520271,  -267.756165
   1161,   150.029495,  -282.586487
   1162,   148.774963,  -294.324646
   1163,   147.459412,  -304.526093
   1164,   51.6607399,  -165.360336
   1165,   64.5660248,  -172.389633
   1166,    176.02774,  -174.859512
   1167,   142.867554,  -167.366974
   1168,   166.074661,   -180.87236
   1169,   157.748734,  -178.328827
   1170,   106.956589,  -157.234192
   1171,   114.012444,  -160.511826
   1172,   180.374619,  -195.416992
   1173,   165.337921,  -224.275146
   1174,   174.973251,   -210.46524
   1175,   164.057297,  -241.507431
   1176,   89.7350235,  -229.505783
   1177,   88.5565033,  -212.490738
   1178,   155.875488,  -256.351288
   1179,   144.669052,  -271.995422
   1180,   143.651367,  -345.159271
   1181,   98.3572235,  -239.537491
   1182,   153.319672,  -354.787933
   1183,   103.782509,  -261.285706
   1184,   143.116486,  -335.366852
   1185,   105.574364,  -311.454102
   1186,   146.011505,   -314.56073
   1187,   97.1172333,   -343.60498
   1188,     98.38694,  -354.492889
   1189,   76.2209625,  -197.925827
   1190,   113.610115,  -295.400818
   1191,   134.723434,  -345.555054
   1192,   102.509331,  -324.862701
   1193,   127.031425,  -345.475586
   1194,   105.397591,  -329.067078
   1195,    118.19355,  -344.967102
   1196,   108.427551,  -344.671844
   1197,   113.870605,  -286.107391
   1198,   113.614014,  -276.263123
   1199,   144.377213,  -324.891937
   1200,    105.45237,    -247.3349
   1201,   141.016678,  -283.829895
   1202,   140.428543,   -292.75296
   1203,   72.4077988,  -180.296127
   1204,     58.68433,  -159.034454
   1205,   63.0364609,  -165.840698
   1206,   138.525635,  -172.922348
   1207,   135.919891,   -160.92952
   1208,   164.538849,  -188.492432
   1209,   131.185715,  -335.075897
   1210,   145.992722,   -179.15918
   1211,   94.8635635,  -158.611374
   1212,    112.25808,  -167.200623
   1213,    100.29007,  -151.794174
   1214,   177.147781,  -202.558533
   1215,   166.154861,  -216.396576
   1216,   158.802124,  -227.838394
   1217,   91.8080521,  -220.139053
   1218,   157.807281,  -247.142975
   1219,   97.8296432,  -233.158661
   1220,   102.504829,  -334.720184
   1221,   86.4646072,  -204.456894
   1222,   144.879211,  -258.903076
   1223,   137.878876,  -276.567566
   1224,   111.492004,  -265.412811
   1225,    113.01857,  -303.891022
   1226,   139.116959,  -302.314575
   1227,   105.066933,   -239.81546
   1228,   107.675896,  -320.066833
   1229,   110.665825,  -328.259735
   1230,    119.28936,  -336.198273
   1231,   110.167076,  -336.332428
   1232,   135.519852,  -322.616852
   1233,   122.830444,  -287.583771
   1234,   124.111053,  -276.546783
   1235,   82.2674179,  -187.565918
   1236,   71.6814499,  -171.519958
   1237,   113.600174,  -248.295364
   1238,   131.777222,  -290.437927
   1239,   137.532898,  -312.190552
   1240,   124.255844,  -159.374268
   1241,   154.414627,  -187.057068
   1242,   141.068924,  -183.961609
   1243,   120.433113,  -168.342972
   1244,   103.072861,  -165.003647
   1245,    171.91214,  -190.919342
   1246,   90.6428299,   -151.07312
   1247,   122.008652,  -297.299927
   1248,   158.948624,  -222.576187
   1249,   166.509476,  -207.718674
   1250,   153.294952,  -239.315857
   1251,   98.9481201,  -218.127167
   1252,   96.4033051,  -210.664688
   1253,   103.774033,  -232.386719
   1254,   148.779343,  -252.817108
   1255,    137.86586,  -262.857574
   1256,   133.476227,  -282.075653
   1257,   120.540306,   -265.59079
   1258,   84.2696609,  -196.073029
   1259,   117.444061,  -316.640076
   1260,    118.22374,   -327.29126
   1261,   120.720879,   -306.66571
   1262,   124.332397,  -247.533493
   1263,   127.216904,  -319.029907
   1264,   80.7546692,  -178.928589
   1265,   120.393654,  -255.342712
   1266,   69.9915695,  -163.212143
   1267,   129.049347,  -309.466034
   1268,   127.981834,   -175.70549
   1269,   87.2600479,  -168.659836
   1270,   174.482635,  -183.336456
   1271,   157.113281,  -197.751221
   1272,    145.93367,  -191.159668
   1273,   104.309601,  -175.059265
   1274,   96.7162552,  -176.146149
   1275,   120.317657,  -175.282806
   1276,   125.244682,  -326.950043
   1277,   167.117523,  -197.698547
   1278,   103.880341,  -209.177277
   1279,   158.795029,  -215.356216
   1280,   152.664337,  -223.149384
   1281,   108.355034,    -224.0457
   1282,    151.40097,  -247.700958
   1283,   92.2041016,   -194.58461
   1284,   118.348862,  -238.583298
   1285,   131.780304,  -270.175232
   1286,   138.991745,   -254.09259
   1287,   130.523666,  -299.799164
   1288,   88.8069763,  -177.486282
   1289,   67.0692139,  -154.814575
   1290,   79.3807297,   -170.12796
   1291,   129.232605,  -258.222107
   1292,   135.338913,   -187.66922
   1293,   113.177223,  -183.231766
   1294,   148.750198,  -199.371124
   1295,   98.2061539,  -184.871506
   1296,   77.7471085,  -161.296097
   1297,   151.535339,  -215.725571
   1298,   101.788094,  -201.421509
   1299,   113.337982,  -215.367752
   1300,   149.121567,  -232.449966
   1301,   124.710487,  -230.255615
   1302,   142.536514,  -247.381805
   1303,   131.657135,  -250.203278
   1304,   90.4001846,  -186.123779
   1305,   75.6991501,  -152.001953
   1306,   127.025574,   -264.62204
   1307,   129.715195,  -167.288712
   1308,   132.644318,  -182.820587
   1309,   140.790787,   -201.46167
   1310,   99.8793716,  -193.303268
   1311,   127.362305,  -182.699371
   1312,   111.204124,  -207.824738
   1313,   150.391357,  -207.718811
   1314,   144.358246,   -217.08786
   1315,   120.608215,  -214.037888
   1316,   147.417023,  -242.537811
   1317,   134.885437,   -240.25676
   1318,   121.850182,  -190.411072
   1319,   109.164246,  -200.150421
   1320,   123.699471,  -197.719879
   1321,   142.684586,  -209.208054
   1322,   118.481079,   -206.47084
   1323,   139.388596,  -227.257858
   1324,   129.994064,  -220.552399
   1325,   135.185059,  -210.929932
   1326,   116.449089,  -198.938232
   1327,   127.867691,  -212.579391
   1328,   125.764656,  -205.021927
   1329,   133.139755,  -203.395035
   1330,   137.140503,   -218.90155
   1331,   83.0619583,  -367.789917
   1332,   181.185303,  -388.197327
   1333,   83.9101334,  -150.705154
   1334,   36.1511307,  -180.807129
   1335,   130.961182,  -100.900414
   1336,   118.375587,   -129.47998
   1337,   144.252472,  -104.109337
   1338,   214.308319,    -104.5056
   1339,   238.230087,  -106.016556
   1340,   85.7752533,  -160.005142
   1341,   122.313797,  -136.639435
   1342,   145.558548,  -108.455193
   1343,   155.679611,  -107.194954
   1344,   41.4390717,  -192.568314
   1345,   126.195602,  -143.898529
   1346,    95.162674,  -167.462173
   1347,   121.989845,  -151.057968
   1348,    212.32457,  -114.612343
   1349,   112.288506,  -175.036621
   1350,    202.22171,  -115.759567
   1351,   164.841812,  -114.060188
   1352,   179.552917,  -113.560783
   1353,   105.694893,   -183.87851
   1354,   120.608406,  -182.865234
   1355,   156.163116,  -115.866028
   1356,   107.309746,   -192.19397
   1357,   114.636078,  -191.236633
   1358,   205.837433,  -149.416916
   1359,   94.2115173,  -202.820511
   1360,   135.175385,  -178.544586
   1361,   128.787842,  -189.427261
   1362,    182.15239,  -130.928986
   1363,   153.902557,  -167.499344
   1364,   158.263474,  -162.389297
   1365,   130.945709,  -196.246124
   1366,   138.338333,   -194.20401
   1367,   106.134148,  -216.628799
   1368,   180.512848,  -366.117798
   1369,   180.298447,  -373.628448
   1370,   200.763062,  -178.052307
   1371,   86.7715073,  -389.867371
   1372,   162.339615,  -166.567627
   1373,   95.2317429,  -226.851151
   1374,     101.5755,  -225.216171
   1375,   115.450394,  -222.965012
   1376,   122.761139,  -221.884979
   1377,   167.843063,  -173.504578
   1378,   124.499687,  -381.377197
   1379,   58.5872993,  -353.154419
   1380,    175.37973,  -166.746857
   1381,   193.485153,  -172.196869
   1382,   162.686371,  -371.760681
   1383,   158.284912,   -207.06131
   1384,   93.2181854,  -233.729874
   1385,   110.274223,  -231.587158
   1386,   117.227623,  -230.812576
   1387,   132.247513,  -229.427048
   1388,    87.179657,  -265.816467
   1389,   162.536469,  -346.482971
   1390,   162.598557,  -337.333069
   1391,   194.980576,  -183.324677
   1392,   109.540817,  -373.921143
   1393,   146.250381,  -224.959686
   1394,   111.725273,  -239.437897
   1395,   125.749458,  -239.057068
   1396,    142.60968,  -235.679138
   1397,   107.914696,   -353.12439
   1398,   95.8514786,  -259.594849
   1399,   116.438087,  -372.870544
   1400,   154.662323,  -229.858002
   1401,     118.7509,  -244.984222
   1402,   104.832436,  -254.390518
   1403,   104.736092,  -285.302002
   1404,   104.668068,  -294.302277
   1405,   158.727585,  -235.659561
   1406,   182.123993,  -302.705627
   1407,   73.4635239,  -315.482391
   1408,   112.436455,  -256.053253
   1409,   99.8312988,  -319.820709
   1410,   97.6889572,  -312.114166
   1411,   111.781799,  -310.564575
   1412,   174.663651,  -292.449432
   1413,   163.324997,  -266.945251
   1414,   124.346191,   -89.860054
   1415,   147.537384,     89.32901
   1416,   191.406357,   89.0554733
   1417,   147.795959,  -89.2417679
   1418,   191.881943,  -89.0741577
   1419,   124.243027,   89.8075256
   1420,   128.715179,   89.9007034
   1421,   128.555359,  -90.2293625
   1422,   172.309372,  -89.1905594
   1423,   133.355011,    89.834259
   1424,    138.05928,   89.6806641
   1425,   142.784256,   89.4936905
   1426,   152.343307,   89.2201843
   1427,   157.184479,   89.1627731
   1428,   166.901703,   89.1058121
   1429,   171.787933,   89.0886993
   1430,   181.582657,   89.0633545
   1431,   186.499252,   89.0607605
   1432,    201.70282,  -89.0700684
   1433,   133.048233,  -90.2313919
   1434,   152.772446,  -89.2608185
   1435,   167.434296,  -89.2295532
   1436,   221.216431,  -89.2161484
   1437,   137.689667,  -89.4953232
   1438,   142.745361,  -89.2483597
   1439,   157.683701,  -89.2671738
   1440,   162.578873,   -89.264061
   1441,   182.079102,  -89.1242523
   1442,   186.977829,  -89.0973892
   1443,   196.795395,  -89.0672531
   1444,   206.605026,  -89.0948029
   1445,   226.054459,  -89.2074738
   1446,   230.863083,  -89.1235962
   1447,   235.653473,  -88.9706879
   1448,   211.494034,  -89.1367264
   1449,   240.451218,  -88.7791138
   1450,   196.331467,   89.0557861
   1451,   201.242325,   89.0514832
   1452,    206.16066,    89.043808
   1453,   211.073151,   89.0344238
   1454,   220.857758,   88.9875488
   1455,   225.741302,   88.9405975
   1456,   230.623398,   88.8648529
   1457,   235.491592,   88.7601852
   1458,   131.095123,   77.8419571
   1459,   154.025833,   5.16123009
   1460,   126.450264,   85.8747635
   1461,   126.876343,  -85.9260406
   1462,   150.986572,  -30.8326607
   1463,    149.87674,   35.8782425
   1464,   137.026215,   69.9146271
   1465,   152.736725,  -20.6555309
   1466,   151.949707,   25.7415733
   1467,    145.50235,    50.776535
   1468,    146.99086,   -45.637825
   1469,   134.851944,   -73.498497
   1470,   153.773697,  -10.3597546
   1471,   154.116898, -0.0202525947
   1472,   143.707855,   55.6372452
   1473,   145.339874,  -50.4402657
   1474,    141.74086,   60.4754639
   1475,   143.535126,  -55.1818199
   1476,   141.589233,  -59.8639603
   1477,     153.7612,   10.3254385
   1478,   153.329269,   15.4731226
   1479,   139.489639,  -64.4658279
   1480,   152.726532,   20.6138363
   1481,   129.585159,  -82.0393372
   1482,   148.590988,   40.8607826
   1483,   149.821487,  -35.8431244
   1484,    154.03186,  -5.20907259
   1485,   151.943985,  -25.7793598
   1486,    151.00116,   30.8238525
   1487,   153.340393,  -15.5339108
   1488,   132.294113,  -77.8766937
   1489,   134.079666,    74.190567
   1490,   128.703751,   81.8050995
   1491,   245.461533,     2.627002
   1492,   245.464279,   22.8180122
   1493,   245.467148,    12.739255
   1494,   245.456375,  -7.47995806
   1495,   245.474274,  -12.4932203
   1496,    245.46051,  -22.6121101
   1497,   245.444092,  -32.7325058
   1498,   245.449997,  -37.7567902
   1499,   245.477554,  -17.5127754
   1500,   245.474289,  -2.37759471
   1501,    245.23671,  -53.0243073
   1502,   244.991913,  -63.3660698
   1503,    245.09819,  -58.1672897
   1504,   244.955505,  -68.4990311
   1505,   245.079224,  -73.5792007
   1506,   245.220657,  -78.6556549
   1507,   245.464676,   -27.619051
   1508,   245.474167,   7.72772264
   1509,   245.482147,   17.8227367
   1510,   245.476578,   27.8874874
   1511,   245.503479,   32.9364433
   1512,   245.517426,   37.9450493
   1513,   245.524002,   42.9708748
   1514,   245.513199,   48.0105591
   1515,   245.453201,   53.0458908
   1516,   245.339294,   58.1207695
   1517,   245.189819,   63.2366524
   1518,    245.07431,    68.331749
   1519,   245.098175,   73.4298553
   1520,   245.169006,   78.5158386
   1521,   245.208908,   83.5366745
   1522,   177.199112,  -89.1714325
   1523,   215.975037,   89.0166016
   1524,   240.343018,   88.6348495
   1525,   162.045868,   89.1326447
   1526,   176.690918,   89.0758133
   1527,   216.362701,  -89.1904678
   1528,   197.595428,  -84.7293549
   1529,   152.972397,    84.845993
   1530,   186.934219,   84.7303467
   1531,   191.848938,   84.7328415
   1532,    139.09198,   85.6793137
   1533,   192.684738,  -84.7475357
   1534,   168.422897,  -85.0761414
   1535,   158.776978,   -85.160759
   1536,   143.632858,  -85.0864029
   1537,   207.394073,  -84.7685242
   1538,   231.245361,  -84.8021545
   1539,   201.669113,    84.723381
   1540,   225.996277,   84.4205933
   1541,   148.255112,   84.9855194
   1542,   148.872681,  -85.1260529
   1543,   143.640869,   85.2687531
   1544,     153.8918,  -85.1582184
   1545,   212.277786,  -84.8345108
   1546,   163.624573,  -85.1405945
   1547,   235.879074,  -84.4360886
   1548,   196.776154,   84.7340622
   1549,   182.038559,   84.7281265
   1550,   173.244537,  -85.0320511
   1551,    202.48494,  -84.7351608
   1552,   226.597275,  -85.0167618
   1553,   134.650253,   85.9842453
   1554,   167.402176,   84.7605133
   1555,   133.482162,  -87.4930115
   1556,   187.785721,  -84.8004608
   1557,   206.581787,   84.7089233
   1558,   221.180847,   84.5284958
   1559,   230.817429,   84.2494888
   1560,   139.542892,    65.272644
   1561,   147.135925,   45.8231659
   1562,   148.469971,  -40.7694511
   1563,   245.339401,  -47.8780785
   1564,   240.979248,  -32.4166718
   1565,   241.002655,   -7.1502223
   1566,   240.972412,  -37.4320221
   1567,    245.41095,  -42.7892227
   1568,    239.66185,  -68.8222504
   1569,   240.103195,   68.4701385
   1570,   240.100357,   -74.053688
   1571,   241.054398,   53.0935402
   1572,   240.234421,   73.7048874
   1573,   241.002258,   -22.274353
   1574,   241.137268,   38.1891251
   1575,    241.02356,   23.1393337
   1576,   241.006226,    2.9516294
   1577,   241.014771,    13.084507
   1578,   241.068848,   28.2109947
   1579,   241.010117,  -12.1566753
   1580,   241.017166,   8.07195568
   1581,   241.018661,  -17.1683712
   1582,   241.019012,  -2.03921819
   1583,    239.88266,  -63.3806992
   1584,   240.270554,  -57.9874458
   1585,   240.458176,  -79.1532135
   1586,   240.999954,  -27.2721081
   1587,   241.032288,   18.1557236
   1588,   241.124664,   33.2451973
   1589,   241.174805,   43.1707344
   1590,   241.171417,   48.1520157
   1591,   240.851044,   58.1089363
   1592,   240.500702,   63.2610321
   1593,   240.373947,   78.8192673
   1594,   235.622559,   84.0204544
   1595,   156.894775,   21.0727158
   1596,   156.880692,  -21.2960835
   1597,   155.041306,  -31.7086086
   1598,   155.131012,   31.5471535
   1599,    140.99234,  -70.0247345
   1600,    157.95372,   10.5101843
   1601,   157.957367,  -10.7333164
   1602,   158.310822, -0.112653747
   1603,   130.638901,  -86.5768661
   1604,   145.307327,  -60.8490791
   1605,   149.458267,   51.9473648
   1606,   149.072998,  -51.4197311
   1607,   140.471161,   72.1204376
   1608,   133.030426,   78.9986572
   1609,   133.472046,  -83.1328888
   1610,   158.222015,    5.1951952
   1611,   138.628067,  -74.5385284
   1612,   153.801697,  -36.8009605
   1613,   153.976059,   36.6917763
   1614,   158.223297,  -5.44607067
   1615,   147.222321,  -56.1546936
   1616,   147.609314,   56.9362259
   1617,   157.514282,   15.7833023
   1618,   157.506104,  -16.0430717
   1619,   156.104874,   26.3139572
   1620,   156.046341,  -26.5433197
   1621,   143.201187,  -65.4442673
   1622,   131.990356,   82.2606888
   1623,   240.554596,  -84.0383911
   1624,   211.475571,   84.6749496
   1625,   221.875458,  -85.0254669
   1626,    157.77034,   84.7919693
   1627,   172.263931,     84.75177
   1628,   192.399017,   80.4254684
   1629,   193.436325,  -80.4096832
   1630,    188.53923,  -80.5214615
   1631,   187.519455,   80.4066315
   1632,   198.342484,  -80.3484421
   1633,   197.299622,   80.4319229
   1634,   203.218597,  -80.3377228
   1635,   202.177536,   80.4200058
   1636,   155.153549,  -81.0134277
   1637,     164.7276,  -81.0101318
   1638,   159.980164,  -81.0397491
   1639,   169.448181,  -80.9630966
   1640,   208.104141,  -80.3798676
   1641,   153.778351,   80.1598969
   1642,   207.043152,   80.3818741
   1643,   150.237946,  -80.9048233
   1644,   149.042847,    80.222847
   1645,   144.443588,   80.6020355
   1646,   145.236603,  -80.6593475
   1647,   226.184372,   79.7922058
   1648,   227.021225,  -80.8861008
   1649,    230.91011,   79.5541458
   1650,   231.338791,  -80.5237961
   1651,    182.90654,  -84.8808212
   1652,   177.150589,   84.7381592
   1653,   178.068573,  -84.9733276
   1654,   162.585861,    84.771637
   1655,   217.116669,  -84.9401627
   1656,   216.346191,   84.6136856
   1657,   130.378174,   86.1126175
   1658,   240.569519,  -52.7144051
   1659,   240.910263,  -42.4561424
   1660,   236.594849,   3.47879529
   1661,   236.589142,  -1.54063463
   1662,   236.581573,  -6.61043882
   1663,    236.60788,   8.57653904
   1664,   236.620514,   18.6403389
   1665,   236.615173,    13.632967
   1666,   236.580338,  -11.6422577
   1667,   236.587875,  -16.6712589
   1668,   236.656601,    23.667696
   1669,   236.575272,  -21.7332268
   1670,   236.919968,   43.5164757
   1671,   236.871002,    38.640522
   1672,   236.807404,   33.7101974
   1673,   236.921295,   48.3725624
   1674,   236.556442,   57.9909058
   1675,   236.736679,   28.7167702
   1676,   236.799942,   53.1836815
   1677,   236.549774,  -31.8775349
   1678,   236.069672,   62.9911346
   1679,   236.567093,  -26.7546024
   1680,   235.279037,  -74.8692627
   1681,   235.578339,  -57.3792114
   1682,   235.510529,   74.1505966
   1683,   234.726532,   68.4926758
   1684,   234.818726,  -62.8669777
   1685,   233.513489,   -69.186409
   1686,   240.774857,  -47.5164261
   1687,   143.279724,   67.0932693
   1688,   151.145065,   46.8676987
   1689,   152.358368,  -41.7659645
   1690,   245.283264,  -83.6520844
   1691,   152.646317,   41.7705612
   1692,   145.583817,   61.9547462
   1693,   142.675735,  -75.4746475
   1694,   144.521225,   74.8682785
   1695,   144.920868,  -70.9221039
   1696,   147.042252,  -66.3382568
   1697,   149.045151,  -61.7533646
   1698,   153.477371,   52.9645958
   1699,   150.919983,  -57.0882568
   1700,   159.346756,   32.1940002
   1701,   157.802231,  -37.8422775
   1702,   160.336304,   26.8497868
   1703,   159.114029,  -32.6520996
   1704,   161.142395,   21.4741402
   1705,   161.771561,   16.0588684
   1706,   160.194336,  -27.3700809
   1707,   161.064163,  -22.0146523
   1708,   162.219223,   10.6407137
   1709,   161.730179,  -16.6197376
   1710,   162.199692,  -11.1854248
   1711,    162.48851,   5.19363689
   1712,   162.477493,  -5.73959208
   1713,   162.572189, -0.272783965
   1714,   150.744537,  -46.6216087
   1715,   235.647629,    79.164856
   1716,     216.6987,   80.1609955
   1717,   217.899063,  -80.6074142
   1718,   163.269745,    80.285553
   1719,   177.728577,   80.3734207
   1720,   178.911194,  -80.7778702
   1721,   149.926773,   75.0009384
   1722,   151.856796,  -76.5312576
   1723,   227.388763,   -76.882019
   1724,   197.897705,   76.1320724
   1725,   193.065933,   76.1194611
   1726,   189.219666,  -76.2157288
   1727,   194.110382,  -76.0184479
   1728,   207.493576,   76.0324554
   1729,   199.024963,  -75.8497543
   1730,   203.902084,  -75.7852783
   1731,   202.715103,   76.1084747
   1732,   165.901749,  -76.8326187
   1733,   161.277298,  -76.8284607
   1734,   156.601898,  -76.7382126
   1735,   211.888535,   80.2943878
   1736,   172.899796,   80.3521118
   1737,   183.691574,  -80.6595535
   1738,   158.547409,   80.1966705
   1739,   168.089569,   80.3110504
   1740,   222.526642,  -80.7706375
   1741,   182.634415,   80.3846436
   1742,   174.171402,  -80.8967361
   1743,   213.012695,   -80.465889
   1744,   221.477875,   79.9723282
   1745,   135.862534,   81.9257889
   1746,   235.820114,  -79.7814331
   1747,   236.001556,  -52.0966644
   1748,   236.512863,  -36.8839798
   1749,   229.025406,  -73.2515259
   1750,   230.738708,   70.9960098
   1751,   232.104919,  -31.2196808
   1752,   232.406815,   29.3225937
   1753,   232.648972,   39.2496071
   1754,   232.556305,    34.323494
   1755,   232.521683,   53.2891808
   1756,   232.199814,   9.16669178
   1757,   232.199829,   14.2103329
   1758,   232.139771,  -6.03843164
   1759,   232.139359,    -16.09519
   1760,   232.134033,  -11.0802269
   1761,   232.168701,   4.09779549
   1762,   232.143753, -0.964446008
   1763,   228.423706,  -66.5076599
   1764,    232.73349,   48.6545792
   1765,   232.334702,   57.8624878
   1766,   232.732986,   44.0149612
   1767,   230.654236,    65.781868
   1768,    232.28154,   24.2910156
   1769,   232.209991,   19.2433949
   1770,   230.033844,  -61.4657211
   1771,   232.119278,  -21.1412544
   1772,   232.115601,   -26.167017
   1773,   232.154663,   62.2025185
   1774,   236.429031,  -41.8833046
   1775,   236.263596,  -46.9253387
   1776,   147.203781,   68.6546402
   1777,   155.208023,   47.7886047
   1778,   156.235214,  -42.8579788
   1779,   151.570862,   58.0612831
   1780,   158.150146,   37.4378624
   1781,   152.729538,   -52.381443
   1782,   149.084366,  -71.6276398
   1783,   152.850281,  -62.5548668
   1784,   154.570038,  -57.9563408
   1785,   163.250687,  -33.6480179
   1786,    164.62677,   27.3742085
   1787,   165.440735,   21.8729076
   1788,   163.613235,   32.8197784
   1789,   166.088776,   16.3302765
   1790,    166.00975,  -17.2459908
   1791,   166.486252,  -11.6675138
   1792,   166.555969,   10.7766237
   1793,   166.777725,  -6.06511354
   1794,   164.409515,  -28.2505932
   1795,   165.314468,  -22.7795429
   1796,    166.82901,   5.18647337
   1797,   166.895432, -0.443177849
   1798,    156.75769,   42.6011162
   1799,   149.500351,   63.2158127
   1800,   154.489059,  -47.6748009
   1801,   224.788315,  -71.1929855
   1802,   218.657761,  -76.1423874
   1803,   221.726807,   75.2414932
   1804,   216.979813,   75.6077423
   1805,   164.201767,   75.6242752
   1806,   213.677826,  -76.0435028
   1807,   175.085648,  -76.7091751
   1808,   183.346085,   76.0178833
   1809,   179.715179,  -76.5774536
   1810,   168.943085,   75.7545624
   1811,    193.79541,   71.7858582
   1812,    178.50795,    75.948555
   1813,    189.81369,  -71.8579407
   1814,   194.644577,  -71.5563202
   1815,   203.249283,   71.7439499
   1816,   198.542236,   71.7939453
   1817,   158.100891,  -72.3824005
   1818,   199.593155,  -71.1964417
   1819,   162.608139,  -72.5019836
   1820,   173.729309,   75.8553848
   1821,   184.423553,  -76.4090652
   1822,   212.249069,   75.8735962
   1823,   154.807373,   75.1859512
   1824,   188.228592,   76.0758591
   1825,   223.367355,  -76.2436218
   1826,   226.340225,   74.9244232
   1827,   208.741562,   -75.884346
   1828,   170.492096,  -76.8030624
   1829,   230.913025,  -56.3102913
   1830,   232.059235,  -36.1971283
   1831,   228.106155,   30.0413895
   1832,   226.833084,   69.2746506
   1833,   228.656418,   48.9260674
   1834,   227.976257,   58.1320877
   1835,   227.748596,    9.6942997
   1836,   227.629715,  -15.5814915
   1837,   227.732681,   4.61013651
   1838,   227.708939, -0.477445334
   1839,    227.64328,  -10.6091118
   1840,   227.670395,  -5.57707214
   1841,   228.414215,   34.9914627
   1842,   228.409653,   44.6509285
   1843,    227.74147,   14.7285938
   1844,   228.493011,   39.9501724
   1845,   227.613617,  -20.6184616
   1846,   228.720047,   62.5327568
   1847,   227.855316,   24.9591198
   1848,   224.361176,  -64.4501648
   1849,   227.626968,  -25.6253872
   1850,   227.640305,  -30.5997715
   1851,   224.976517,   64.2382736
   1852,   227.750381,   19.8113136
   1853,   231.796204,  -46.1743393
   1854,   231.966583,  -41.1539383
   1855,   231.450974,  -51.1980133
   1856,   161.812897,  -38.9597321
   1857,   157.542404,   53.8464546
   1858,   156.337723,  -53.3539162
   1859,   155.618683,   59.0138168
   1860,   162.377136,   38.1583366
   1861,   153.524796,  -72.0927353
   1862,   156.777161,  -63.1735077
   1863,   167.946274,   33.4629326
   1864,   168.757248,  -29.1608353
   1865,   170.797821,  -12.1368742
   1866,   171.114319,  -6.38994789
   1867,   170.502853,   16.6374111
   1868,   168.945511,   27.9032612
   1869,   171.289261, -0.606975734
   1870,   169.795807,   22.2959843
   1871,   171.019913,   10.9519987
   1872,   171.285248,   5.20157576
   1873,   170.319717,  -17.8483582
   1874,   169.664169,  -23.5336819
   1875,   151.596817,   69.5323486
   1876,   160.134445,   -44.079071
   1877,    159.30603,   48.6200142
   1878,   160.911911,   43.3887329
   1879,   153.606049,   64.1979294
   1880,     158.2314,  -48.8632088
   1881,   155.171539,  -67.6520386
   1882,   212.508789,     71.42379
   1883,   209.407196,  -71.2379608
   1884,   171.540451,  -72.5239563
   1885,   184.212906,   71.6097183
   1886,   180.480621,  -72.2856293
   1887,   214.226547,  -71.6060181
   1888,     217.0569,   71.0421982
   1889,    221.75177,   70.3584137
   1890,   175.965179,  -72.4299545
   1891,   165.344299,   70.8745346
   1892,   179.434235,   71.4702835
   1893,   194.954102,  -67.1422272
   1894,   194.551285,   67.3829651
   1895,   199.735947,  -66.6775818
   1896,   159.538696,  -67.9644699
   1897,   199.175308,   67.3693466
   1898,   169.990448,   71.1064987
   1899,   174.700378,   71.3021393
   1900,    185.09285,  -72.0900497
   1901,   207.911957,   71.6216812
   1902,    189.02504,   71.7207947
   1903,   204.589478,  -70.9213943
   1904,   167.093903,  -72.5380173
   1905,   230.887634,   74.9002762
   1906,   225.506287,  -59.9700012
   1907,   227.628006,  -35.5179749
   1908,   223.352127,   4.93362808
   1909,   223.354019,   45.6985168
   1910,   223.662399,   53.0483437
   1911,   223.300476, -0.154715821
   1912,   223.799667,    30.926981
   1913,   223.053116,  -15.2357988
   1914,   223.193542,  -5.22297573
   1915,    223.09201,  -10.2838678
   1916,   223.398743,   25.6249428
   1917,   223.342041,   10.0209446
   1918,   222.963333,   58.8882141
   1919,   224.683594,   40.3650169
   1920,   221.125961,   65.8709183
   1921,   223.057846,  -20.2630653
   1922,   224.539581,    35.667263
   1923,   220.238571,   62.2834587
   1924,   223.115326,  -25.2439613
   1925,   223.195328,  -30.1517487
   1926,    227.34964,  -45.2939415
   1927,   223.312088,   15.0827713
   1928,   223.310974,   20.2601089
   1929,   226.961182,  -50.1800461
   1930,   227.554657,  -40.4075661
   1931,   226.356873,   -55.107193
   1932,   159.763199,   59.8121605
   1933,   167.441559,   -34.669529
   1934,    158.18718,  -58.7163963
   1935,    166.67569,   38.9078178
   1936,   160.779007,   70.5287704
   1937,   219.136826,  -71.7643051
   1938,   161.624283,   54.6360283
   1939,   157.899445,   64.9502945
   1940,   175.488113,  -6.72953892
   1941,   175.106491,  -12.5564203
   1942,   173.325012,   28.4359627
   1943,   175.778488,   -0.8086676
   1944,   175.904419,   5.20200872
   1945,    175.70723,   11.1664476
   1946,   173.351227,  -30.0981293
   1947,   175.075592,   17.0071144
   1948,    174.22821,   22.7608242
   1949,   174.652679,  -18.3467712
   1950,   174.128189,  -24.1924973
   1951,   219.212784,  -67.6539459
   1952,   163.409805,   49.4285889
   1953,   165.856873,  -40.1349487
   1954,   164.091217,  -45.4674797
   1955,   165.102142,   44.1912766
   1956,   159.758392,  -54.3748932
   1957,   162.276825,    65.529335
   1958,   208.305054,   67.0977478
   1959,   210.229462,  -66.3599396
   1960,   185.178757,   67.1667023
   1961,   168.219055,   -68.139267
   1962,   185.693466,  -67.6886673
   1963,   212.706848,   66.8647461
   1964,   214.812714,  -67.0746613
   1965,   172.491562,  -68.0971909
   1966,   176.785446,  -68.0075378
   1967,   180.459763,   66.9656067
   1968,   195.253098,   62.8973656
   1969,   199.328018,  -62.5633278
   1970,   166.699326,   66.0025864
   1971,   175.788727,   66.7112961
   1972,   171.198288,     66.38871
   1973,   190.294952,  -67.4607086
   1974,   203.751587,   67.2637558
   1975,    189.87709,   67.3158112
   1976,   205.176636,  -65.3575745
   1977,   163.853928,  -68.1025696
   1978,   223.251205,  -34.9769897
   1979,   218.881912,   50.9501915
   1980,   218.650497,   -4.9256196
   1981,   218.899841,  0.103301354
   1982,   216.315002,   45.7838364
   1983,   219.119919,   5.10426426
   1984,   219.261368,   32.3112602
   1985,   218.031708,    57.297142
   1986,   218.383881,  -15.0736437
   1987,   218.456879,    -20.13167
   1988,   218.454239,  -10.0435381
   1989,   219.031342,   26.1452808
   1990,   222.601318,  -49.1964874
   1991,   220.931625,   36.7737389
   1992,   217.034546,   61.9954987
   1993,   216.917526,   66.5671234
   1994,   219.069107,   10.1846743
   1995,   223.011948,  -44.4572449
   1996,   218.615189,  -25.1191578
   1997,   218.791916,  -29.9658279
   1998,   218.998444,   20.4999847
   1999,   218.968948,   15.2278318
   2000,   221.975952,  -54.0140305
   2001,    223.22316,  -39.7453346
   2002,   156.212646,   70.0622482
   2003,   221.108337,  -58.7484283
   2004,   220.048676,  -63.2749825
   2005,   171.668762,  -35.7716789
   2006,   160.879105,  -63.5133286
   2007,   172.345139,   34.1095543
   2008,   165.698685,   55.4115105
   2009,   163.935989,   60.4874992
   2010,   179.861298,  -7.14279222
   2011,   180.352844,  -1.16037178
   2012,   180.741867,   5.07110119
   2013,    180.77533,   11.4114542
   2014,   177.693634,   28.9478626
   2015,   179.780975,   17.5147228
   2016,   179.383438,  -12.9575462
   2017,    178.67131,   23.3242359
   2018,   178.599396,  -24.5336971
   2019,   178.934662,  -18.6815834
   2020,   167.460129,   50.2902946
   2021,   169.831772,  -41.3244476
   2022,   169.281021,   45.0947647
   2023,    166.04837,  -53.0472107
   2024,   173.673248,  -42.5149651
   2025,   171.096222,   39.7465324
   2026,   165.964249,  -58.7990837
   2027,   213.008453,   62.1345673
   2028,   186.158417,   62.6987801
   2029,   190.734909,  -63.0347977
   2030,   208.657501,    62.432354
   2031,   207.543594,  -60.1894836
   2032,   169.172592,  -63.5343933
   2033,    181.53064,   62.4517479
   2034,   181.847076,  -63.3546677
   2035,   173.327698,  -63.4624672
   2036,   176.975433,   62.0973473
   2037,   168.187408,   61.0988503
   2038,   172.514374,   61.6373215
   2039,   195.115646,  -62.8035812
   2040,   199.742111,   62.8441696
   2041,   164.980164,  -63.5725594
   2042,   190.715363,    62.844593
   2043,    202.75174,  -62.2593994
   2044,   218.941483,  -34.6682663
   2045,   218.428421,   -48.343277
   2046,   214.529419,   0.56135112
   2047,   212.287186,   47.5272179
   2048,    213.44458,   52.2669716
   2049,    214.03537,  -4.57332897
   2050,   214.388107,   41.3403549
   2051,    213.00882,   37.1803017
   2052,   213.750061,  -9.83576393
   2053,   215.233475,   5.25138617
   2054,   213.459305,   57.3431969
   2055,   213.574951,  -15.0976295
   2056,   215.512817,   31.8989868
   2057,   214.922424,   10.1244488
   2058,   213.853012,  -20.2712631
   2059,   214.501526,   15.1933823
   2060,   214.160767,  -25.2925892
   2061,   214.708496,   26.3352375
   2062,   218.837006,   -43.772419
   2063,   214.916443,   20.4649715
   2064,    218.99678,  -39.2597122
   2065,   216.868408,  -57.6771049
   2066,   178.571472,   -31.178297
   2067,   176.772156,   34.6226196
   2068,   169.756699,   56.1719818
   2069,   208.934464,   57.7796249
   2070,   191.131119,  -58.6494217
   2071,   187.074844,   58.1958504
   2072,   203.733841,  -58.7935257
   2073,   204.551544,    58.124115
   2074,   182.598465,   57.9281921
   2075,   182.475525,  -58.7980766
   2076,   174.088516,  -58.6295052
   2077,   178.211426,   57.4858513
   2078,   178.255478,  -58.7140198
   2079,   173.889359,   56.8810349
   2080,   195.382248,  -58.2596283
   2081,   191.485001,   58.3118858
   2082,   200.219879,   58.2849426
   2083,   199.585236,  -58.2615471
   2084,   211.545624,  -61.4265366
   2085,   214.421173,  -30.0788612
   2086,   214.414963,  -47.6025543
   2087,   169.935226,  -58.6069107
   2088,   209.809692,   1.87218046
   2089,   208.309357,   48.8477821
   2090,   210.667725,   43.1131477
   2091,   209.478806,   38.6966209
   2092,   209.426865,  -4.15656805
   2093,   214.849335,   -43.280304
   2094,    208.87413,   53.1781349
   2095,   212.164886,   5.46004963
   2096,   209.131256,  -9.57267284
   2097,   212.732468,  -56.6346817
   2098,   208.661255,   34.5490303
   2099,   208.425766,   -15.309597
   2100,   210.898346,   9.36141777
   2101,   209.121735,   15.0640602
   2102,   213.666382,  -52.0641518
   2103,   209.395782,  -20.7696629
   2104,    211.06514,   20.5958347
   2105,   211.047699,   29.1198292
   2106,   206.941132,   27.2569866
   2107,   214.871552,  -39.0165749
   2108,   214.672455,  -34.6546021
   2109,   171.375259,   51.2295532
   2110,   183.536011,  -28.9894581
   2111,   182.099365,   29.4126377
   2112,   175.694946,  -37.1356392
   2113,   184.181702,  -7.73221779
   2114,   185.000168,  -1.83109128
   2115,   185.654358,   4.53996468
   2116,   186.686951,   11.7860298
   2117,   183.629883,  -13.3921709
   2118,   183.036392,   24.0576897
   2119,   184.346085,   18.4369678
   2120,   183.057495,  -24.1587925
   2121,   183.256439,  -18.8785496
   2122,   171.983749,  -47.8400917
   2123,   177.431534,  -43.7801285
   2124,   173.151901,   46.2462883
   2125,   175.901093,   40.8183517
   2126,   179.441223,   52.9252281
   2127,   187.890579,   53.6335983
   2128,   187.254959,  -54.5376472
   2129,   191.212006,  -54.6065903
   2130,   192.151962,   53.7233505
   2131,   183.599152,   53.3793831
   2132,   183.173279,  -54.3069572
   2133,   200.631775,   53.7031097
   2134,   200.142975,  -53.6780167
   2135,   179.036667,  -53.9931793
   2136,   196.407654,   53.7421265
   2137,   195.347397,  -53.2052422
   2138,    174.87822,  -53.6321754
   2139,   208.654251,   -55.546669
   2140,   209.808182,  -25.7353783
   2141,   210.512238,  -46.8587875
   2142,   204.878555,   49.2492943
   2143,   209.573669,  -51.0846291
   2144,   206.225769,   44.9194641
   2145,   205.540482,   1.00947869
   2146,   204.509186,  -3.97880268
   2147,   208.120667,  -42.8149338
   2148,   205.173981,   35.5024872
   2149,   207.471832,   7.02047968
   2150,    204.32428,  -13.8033953
   2151,   204.894333,   11.3758802
   2152,   204.361511,   19.0390415
   2153,    204.47377,  -17.4154625
   2154,   200.821762,   24.5532837
   2155,   204.147034,    27.847311
   2156,   204.647461,   31.5646477
   2157,   210.334305,  -34.9704933
   2158,   210.044846,  -30.4646015
   2159,    182.10733,  -35.2840767
   2160,    187.55188,  -24.0751514
   2161,   187.409225,   24.9813919
   2162,   181.362503,   34.6970253
   2163,   189.996246,   -3.0599544
   2164,   190.448349,   3.27538395
   2165,    191.97287,   8.78355312
   2166,   188.317871,  -8.62728882
   2167,   191.053375,   15.9593897
   2168,   188.442093,   20.2237873
   2169,   187.837585,  -13.8583784
   2170,   187.696365,  -19.0965691
   2171,   180.028305,  -49.3666573
   2172,   180.567612,   48.4595261
   2173,   188.567017,   49.0264091
   2174,   191.751053,  -51.1732788
   2175,   184.467987,   48.8180084
   2176,   188.043137,  -50.4745255
   2177,   192.707932,    49.110775
   2178,   201.040283,   49.1355095
   2179,   197.020279,  -47.9584351
   2180,   204.469803,  -54.4812698
   2181,   204.715134,   53.6205215
   2182,   205.224442,  -21.6676388
   2183,    205.34845,  -49.9103355
   2184,   206.594986,  -45.6122246
   2185,   201.606354,   44.7212944
   2186,   202.211288,   3.80943561
   2187,   202.196808,   1.16500509
   2188,   201.707336,   40.2452774
   2189,   204.417084,   5.10150957
   2190,   200.289124,  -9.54845715
   2191,    206.75325,  -40.0706367
   2192,   201.394608,   14.5317917
   2193,   201.832214,   8.28011036
   2194,   199.715591,   20.6933231
   2195,   200.308929,  -13.8825722
   2196,   197.819717,   25.7198277
   2197,    201.57962,   35.9894981
   2198,   201.288147,   28.2458153
   2199,   205.616013,  -30.9540615
   2200,   205.595062,  -26.2961864
   2201,   185.710434,  -32.6901016
   2202,   186.509674,   29.9299774
   2203,   182.572464,  -41.0400085
   2204,    184.08139,  -49.9506683
   2205,   191.547195,   21.6449623
   2206,   192.393646,  -25.3791504
   2207,   185.126694,  -45.6693382
   2208,   181.307083,   44.0396767
   2209,   185.100388,   44.2008896
   2210,   189.144943,   -46.081028
   2211,   193.183594,   44.5622864
   2212,   192.995651,  -46.9370689
   2213,   176.708221,   47.7146072
   2214,   197.976898,  -43.1043091
   2215,   200.513046,   -18.103014
   2216,    202.68808,  -42.8601379
   2217,   197.333954,   44.6736183
   2218,   198.858749,  -2.02547407
   2219,   195.854477,  -5.84387207
   2220,   198.793213,   1.67528725
   2221,   199.681015,   5.20391321
   2222,   197.565475,    16.937952
   2223,   198.500168,    10.727272
   2224,   196.038467,   22.7959118
   2225,   196.129456,  -14.1530542
   2226,   197.620392,   40.2845993
   2227,   201.042603,  -36.7261391
   2228,   195.594391,   27.9263496
   2229,   198.107452,   32.0876427
   2230,   201.613251,  -26.7211876
   2231,   201.116058,  -22.4009113
   2232,   189.315125,  -29.8778725
   2233,   194.126953,   19.3550186
   2234,   190.733536,   30.6124611
   2235,   184.745514,  -38.3464317
   2236,   185.798141,    34.881855
   2237,   181.075317,   39.7062416
   2238,    189.53949,   39.8301926
   2239,   190.199402,  -40.8690224
   2240,    178.05455,   44.1104164
   2241,   197.792953,  -39.3231163
   2242,   201.195496,  -48.7142296
   2243,   196.280563,  -18.7626038
   2244,   192.752579,  -6.24375963
   2245,   194.899796,  -2.07210493
   2246,   194.927216,   2.39608097
   2247,   192.133743,  -9.67702484
   2248,    194.70694,   13.0845814
   2249,    196.18718,   6.81664515
   2250,    197.20546,  -35.0200729
   2251,   196.905396,  -23.3870468
   2252,   196.172043,  -30.3948898
   2253,   189.967819,   35.2684288
   2254,   188.188782,   -36.318882
   2255,   181.210037,  -44.9498177
   2256,   185.385025,   39.6359406
   2257,   196.860153,   49.1542511
   2258,    191.95369,  -14.2063532
   2259,   193.562241,   40.1017151
   2260,   192.023788,   -19.280859
   2261,   185.771835,  -41.5849724
   2262,    193.94873,   35.7510834
   2263,   140.320053,  -80.0809326
   2264,   147.128174,  -76.1273346
   2265,   194.313629,   -37.924118
   2266,   215.762604,  -62.3755417
   2267,   245.251999,  -88.5775528
   2268,   137.244141,  -69.0119858
   2269,   245.188263,   88.4990845
   2270,   136.142426,  -78.9940109
   2271,   240.405945,   83.7724686
   2272,   137.791855,  -84.9700699
   2273,   139.933548,   81.5221252
   2274,   136.797409,   76.9729233
   2275,    140.09642,   77.9101791
   2276,    150.97435,  -67.0746155
   2277,   159.555908,   75.3883362
   2278,   230.899872,  -76.4520493
   2279,   161.998917,  -50.3758926
   2280,   162.002335,  -59.1389885
   2281,   162.422897,  -55.4966431
   2282,   170.623413,  -53.2730484
   2283,   222.801758,  -67.7761383
   2284,   204.182312,   62.6908531
   2285,   228.187103,   53.4201088
   2286,   168.015762,  -46.8712921
   2287,   175.974396,  -48.6421242
   2288,   181.175186,   -67.876564
   2289,   195.833801,   58.3452797
   2290,   177.515167,  -63.4170685
   2291,   175.273041,     52.18013
   2292,   217.745667,  -53.0378494
   2293,   225.249023,     49.11269
   2294,   186.226257,   -63.247303
   2295,   186.716904,  -58.8408852
   2296,    179.30838,  -39.1474838
   2297,   219.826767,   42.8256798
   2298,   221.988678,    40.028183
   2299,   189.077942,    44.402504
   2300,   211.148712,  -42.9856834
   2301,   210.867096,  -39.1681747
   2302,   217.815384,   39.0688705
   2303,   205.808395,  -35.7506485
   2304,   205.632935,   39.8498497
   2305,   197.801056,   36.0562134
   2306,   193.984894,  -42.4674873
   2307,   186.863617,  -27.6975136
   2308,    201.28717,  -31.1775913
   2309,   191.963913,  -33.5259056
   2310,   216.291214,   35.4371567
   2311,   212.119797,   33.1588745
   2312,   194.502777,   31.5846806
   2313,   201.422684,   32.0255508
   2314,   207.808228,   30.6643772
   2315,   198.270264,  -26.8015957
   2316,   192.153366,   25.6273136
   2317,   198.349503,   28.5764427
   2318,   209.523727,   25.9175091
   2319,    211.77092,   24.4735203
   2320,   199.771667,  -5.47574234
   2321,   206.130936,   24.4188423
   2322,   207.910507,   22.3667583
   2323,   196.109573,  -9.84803772
   2324,   201.825653,  -1.56064236
   2325,   203.748795,   24.0061359
   2326,   204.710724,  -9.23378658
   2327,    151.42511,   99.3452454
   2328,    126.94574,   99.6004944
   2329,   156.517319,   99.1534348
   2330,   166.479614,   98.7516479
   2331,   136.662048,    99.073494
   2332,   141.392273,   99.4020386
   2333,   146.360718,   99.4976349
   2334,   171.403595,   98.6594086
   2335,   186.121094,   98.5588913
   2336,   191.043976,   98.5456314
   2337,   200.849564,   98.3933411
   2338,   205.626541,   98.2549973
   2339,   210.371002,   98.1501541
   2340,   215.201263,   98.2842789
   2341,    224.91507,   99.1486435
   2342,   229.947266,   99.7503586
   2343,   235.084778,   100.223717
   2344,   240.405197,   100.173332
   2345,   244.985184,    99.135582
   2346,   176.310425,   98.6114883
   2347,   161.543442,   98.9561157
   2348,   195.963394,   98.5028305
   2349,   220.010529,   98.6315308
   2350,   181.214371,   98.5877991
   2351,   234.616257,   107.184731
   2352,   166.656509,   104.173767
   2353,   156.650131,   104.916267
   2354,   140.565598,    105.82885
   2355,   205.677246,   103.384651
   2356,   241.473221,    106.76123
   2357,   151.380219,   105.395355
   2358,    145.98172,   105.813484
   2359,   171.514343,   103.984901
   2360,    161.74614,   104.528625
   2361,   186.133682,   103.813263
   2362,   200.977661,   103.651718
   2363,   210.096954,   102.803047
   2364,   223.896683,   104.578949
   2365,   181.240723,   103.844917
   2366,   206.717422,     109.5056
   2367,   171.721466,     109.3647
   2368,   210.250122,   106.717567
   2369,   167.026428,     109.6604
   2370,    162.22261,   110.116928
   2371,   151.774506,   111.393265
   2372,   226.860626,   111.668571
   2373,   145.985687,   112.228668
   2374,   196.012146,   103.741821
   2375,   191.057251,   103.805008
   2376,   176.372208,   103.899193
   2377,   196.047348,   109.054871
   2378,   181.288345,   109.213638
   2379,   167.705048,   115.301575
   2380,   205.041382,    115.16526
   2381,   163.041641,   115.804329
   2382,    186.16362,   109.217819
   2383,   191.084335,   109.175934
   2384,   201.155075,   109.071724
   2385,   176.471344,   109.251495
   2386,   213.672318,   107.774185
   2387,    222.35936,    109.36232
   2388,   139.603363,   112.784317
   2389,   196.123764,   114.367958
   2390,   176.642441,    114.53154
   2391,   191.175568,   114.676483
   2392,   181.332565,   114.626816
   2393,   164.126831,   121.673798
   2394,    186.19606,   114.744942
   2395,   216.765289,   113.128029
   2396,   219.120819,   103.656441
   2397,   222.636826,   115.882668
   2398,   232.699753,   115.596527
   2399,   191.468658,   120.313057
   2400,   186.130753,   120.434296
   2401,   181.191086,   120.149895
   2402,   210.378387,   119.198227
   2403,   217.917603,   108.441772
   2404,   172.243378,   114.753296
   2405,   159.171158,   121.655014
   2406,   225.467194,   119.842926
   2407,   241.570099,   114.913902
   2408,   152.741837,   117.147392
   2409,   132.372711,   111.516014
   2410,   191.916763,    126.09008
   2411,   217.255859,   118.168701
   2412,   201.667847,   118.238586
   2413,   169.030075,   121.233047
   2414,   176.796432,   119.458618
   2415,   233.108353,   124.838737
   2416,   128.356659,   105.407829
   2417,   139.858353,   121.057281
   2418,    147.00061,   118.372116
   2419,   135.612289,    104.99678
   2420,   158.071884,   116.321686
   2421,   196.811783,   119.632095
   2422,   200.815094,   114.043159
   2423,   159.842606,   125.897202
   2424,   185.801651,   126.215912
   2425,   223.382629,   128.820404
   2426,   154.194504,   122.593483
   2427,   229.837921,   134.468933
   2428,   126.020752,    112.29319
   2429,   131.363388,   119.732201
   2430,   241.329361,   124.387894
   2431,   144.780807,   130.030441
   2432,   180.098312,   125.329552
   2433,   132.008011,   103.236465
   2434,   241.052795,   271.746002
   2435,   241.032944,   291.561432
   2436,   240.957367,   331.232147
   2437,   240.277695,   440.353485
   2438,   240.765549,   371.084137
   2439,   240.796051,   361.098877
   2440,   240.847565,   351.117432
   2441,   240.912979,   341.158478
   2442,    240.98584,   321.309021
   2443,    241.00296,   311.393311
   2444,   241.016388,   301.467438
   2445,   241.043137,   281.660614
   2446,   241.062881,   261.826447
   2447,    241.06778,   251.908768
   2448,   241.086639,   232.094208
   2449,   241.268524,   202.690628
   2450,    241.22348,   212.448135
   2451,   240.258301,   173.139877
   2452,   241.068192,   241.990219
   2453,   240.467606,   163.220123
   2454,   240.848709,   183.083878
   2455,   240.697357,   153.326691
   2456,   241.220825,   192.943008
   2457,   241.146896,   222.237091
   2458,   240.681427,   143.519104
   2459,   198.150192,   125.144249
   2460,   164.572861,   128.156555
   2461,    213.33905,   126.172249
   2462,   184.383301,   137.692337
   2463,   219.836151,   138.797867
   2464,   123.330383,   117.394165
   2465,   149.214142,   123.784203
   2466,    156.10318,   127.833275
   2467,   145.995041,   136.287292
   2468,   231.126556,   144.314407
   2469,   138.050156,   128.934692
   2470,   116.493813,   111.018089
   2471,   206.652817,   128.983398
   2472,   122.715904,   107.358696
   2473,   216.586258,   132.519226
   2474,   199.505157,   131.059555
   2475,   153.094025,   135.132614
   2476,   221.779251,   146.048721
   2477,    240.64801,   133.993042
   2478,   138.424606,   136.187576
   2479,   110.955757,   116.649879
   2480,   178.000259,   130.739029
   2481,   159.152161,   132.528793
   2482,   148.018982,   143.319397
   2483,   208.866974,   135.328201
   2484,   192.421371,   138.037506
   2485,   139.860275,    143.53096
   2486,   130.033356,   135.824646
   2487,   231.422882,   153.774826
   2488,   120.727974,   100.718079
   2489,   129.769852,   127.493599
   2490,   192.094681,    144.36821
   2491,   201.762558,   144.855255
   2492,   211.066116,   141.463257
   2493,   141.358917,   150.798798
   2494,    168.69223,   133.021332
   2495,    156.26506,   141.677765
   2496,   131.707626,   143.777206
   2497,   192.282196,   131.963272
   2498,   198.347931,   152.710495
   2499,   184.082092,   143.620255
   2500,    206.69696,    149.12648
   2501,     168.1492,    143.22197
   2502,   135.495575,    156.42099
   2503,   123.367065,   145.195953
   2504,   149.998352,    150.92215
   2505,   230.952148,   163.378067
   2506,   213.266678,   147.651047
   2507,   205.633957,   154.451202
   2508,    190.34494,   151.258148
   2509,   160.928711,   150.006424
   2510,   150.324463,   158.936111
   2511,   177.742172,   142.828262
   2512,   141.714447,   158.156723
   2513,   188.190155,   158.264023
   2514,   196.277161,   159.819336
   2515,   213.665909,   154.605301
   2516,   149.803726,   167.240356
   2517,   159.873886,   159.474365
   2518,   131.692932,   159.889465
   2519,    222.31868,   154.223587
   2520,   194.478119,   167.006851
   2521,   179.983276,   156.465347
   2522,   204.378479,   161.090652
   2523,   159.218369,   168.047485
   2524,   174.553421,   147.608765
   2525,   212.841309,   161.858368
   2526,   186.077042,   165.434006
   2527,   202.919434,   168.208389
   2528,   171.173492,   154.026733
   2529,    211.37056,   169.231247
   2530,   201.461136,   175.628922
   2531,   177.958954,   163.293106
   2532,   192.981674,   174.354828
   2533,   221.683609,   162.566208
   2534,   219.959259,   170.533234
   2535,    191.87265,   181.938354
   2536,   183.629227,   173.262955
   2537,   209.716049,   176.717163
   2538,   217.463715,   177.765686
   2539,   176.259262,   170.160538
   2540,   185.007935,   180.248703
   2541,   200.133759,    183.44574
   2542,   223.668182,   179.216858
   2543,   208.406509,   184.666031
   2544,   176.339966,   176.760468
   2545,   198.708313,   191.339676
   2546,   189.678986,   189.273895
   2547,   216.367142,   185.568024
   2548,   168.087952,   177.114426
   2549,    179.58374,   185.615479
   2550,   215.744308,   193.749512
   2551,   224.333557,   185.718201
   2552,   207.343582,   192.824188
   2553,   197.334183,   199.305222
   2554,   126.928963,   153.059631
   2555,   139.291092,   166.250244
   2556,   188.134003,   196.991318
   2557,   168.940125,   185.722092
   2558,   168.106903,    169.06459
   2559,    229.68364,    173.90773
   2560,   178.746674,   195.177277
   2561,   206.231598,   201.298996
   2562,   159.136856,   176.624222
   2563,   119.436447,   125.350418
   2564,   224.243088,   194.015137
   2565,   120.783592,   136.162689
   2566,   232.193634,   184.196793
   2567,   169.212509,   161.276245
   2568,   240.744278,   381.055786
   2569,   232.004822,   321.357819
   2570,   240.722137,    400.94516
   2571,   240.667923,   410.860077
   2572,   240.581406,   420.740204
   2573,   240.729202,   391.009613
   2574,    231.65097,   361.306335
   2575,   231.949646,   331.290741
   2576,   240.457047,   430.579926
   2577,   231.754761,   351.248291
   2578,   231.860184,   341.238892
   2579,    232.03093,   311.439362
   2580,   232.062225,     301.5112
   2581,   232.106979,   241.956833
   2582,   232.109375,   281.691437
   2583,   232.137344,   271.771454
   2584,    232.36171,   212.526306
   2585,   232.089752,   232.021713
   2586,   232.092728,   291.598969
   2587,   232.155853,    261.84729
   2588,   232.172989,   222.200317
   2589,    232.66304,   193.577271
   2590,   232.592529,   202.969116
   2591,     232.1418,   251.905319
   2592,   9.13179302,   220.773514
   2593,   8.95910549,   320.628784
   2594,   9.03792667,   350.630554
   2595,   121.622108,   440.983948
   2596,   131.543518,   441.098206
   2597,   141.447495,   441.170441
   2598,   161.284134,   441.108917
   2599,   171.174011,   441.047058
   2600,   181.059311,   440.957947
   2601,   190.968384,   440.868256
   2602,   210.762955,   440.712097
   2603,    220.61615,   440.629852
   2604,   200.849197,    440.78476
   2605,   101.649704,   440.542847
   2606,   91.5016098,   440.005249
   2607,   9.21937275,   380.596832
   2608,   70.5415802,   438.661072
   2609,    9.2643652,   390.581299
   2610,   9.14405441,   370.621216
   2611,   9.32217598,   400.561981
   2612,   39.3455238,   440.358582
   2613,   9.48581791,   420.480927
   2614,   9.58959198,    430.39502
   2615,   29.4382019,   440.448669
   2616,   9.75719643,   440.249725
   2617,   9.38717842,   410.534454
   2618,   59.8405724,    439.29126
   2619,   9.07197666,   360.632568
   2620,    111.67337,   440.851868
   2621,    8.9881134,   340.623962
   2622,     8.952281,   330.626129
   2623,   8.93704891,   310.626495
   2624,   8.93184662,   290.663635
   2625,   8.93161583,   270.682526
   2626,   9.41585159,   210.674118
   2627,   9.85800266,   200.479858
   2628,   10.4268827,    190.18602
   2629,   10.9505482,   179.846191
   2630,   11.1803055,   169.660431
   2631,   8.91849518,    300.64151
   2632,   151.343811,   441.190094
   2633,   8.88816166,   260.710236
   2634,    8.8788023,   240.790359
   2635,   8.94449902,   230.808868
   2636,   8.90716267,   280.676788
   2637,   64.0730972,   145.131851
   2638,   73.6564636,     140.5923
   2639,   33.1516266,   157.129166
   2640,   22.0263176,   158.835037
   2641,   54.0540657,    149.23764
   2642,   43.8015823,   153.362289
   2643,   82.5474701,   135.269241
   2644,   230.466141,   440.517975
   2645,    230.82515,   430.872772
   2646,   125.900307,   163.631485
   2647,   120.335983,   156.391891
   2648,   178.383499,   204.253754
   2649,   214.994064,   202.494354
   2650,   195.686066,   207.331131
   2651,    169.08078,   194.360947
   2652,   187.045563,   204.705826
   2653,   131.427582,   169.928513
   2654,   115.300285,   148.031708
   2655,   112.058151,    128.46199
   2656,   110.354149,    137.67392
   2657,   231.495667,   381.426758
   2658,    231.44574,   391.427124
   2659,   231.378067,   401.367462
   2660,   223.299347,   271.767426
   2661,   231.265976,   411.270996
   2662,   223.258713,   281.684509
   2663,   223.143524,   311.426849
   2664,    223.18689,   301.500183
   2665,   223.228119,   291.590942
   2666,   223.102112,   321.339111
   2667,   223.024918,   331.270203
   2668,   222.752441,   351.292938
   2669,   222.919037,   341.237793
   2670,   223.327606,   261.848602
   2671,   223.279999,   251.896439
   2672,   223.328659,   212.386673
   2673,   223.838684,   202.991699
   2674,    223.12468,   241.892181
   2675,   222.953323,   222.006775
   2676,   222.936447,   231.868774
   2677,   231.548294,   371.380188
   2678,   8.84162426,   250.759567
   2679,   81.1246719,   439.191223
   2680,   49.4399414,   439.955627
   2681,   19.5820274,   440.395721
   2682,   18.3361988,   381.132965
   2683,     18.45191,   211.767014
   2684,   123.257576,   432.209045
   2685,   191.731293,   431.583435
   2686,    211.37468,   431.249298
   2687,   18.1847019,   371.146118
   2688,   71.1826096,   426.245239
   2689,   38.5973358,   430.793213
   2690,   18.9626694,   420.882599
   2691,   19.2273197,   430.687317
   2692,   19.2919559,   201.545319
   2693,     17.73316,   301.221649
   2694,    17.696785,    271.34964
   2695,   17.7701721,   331.159912
   2696,   172.118332,    432.05368
   2697,   221.102234,   431.077423
   2698,   133.013168,   432.402374
   2699,   17.7266998,   311.176483
   2700,   113.477058,   431.955902
   2701,    142.75499,    432.49704
   2702,   162.319016,     432.2995
   2703,   181.877182,   431.808289
   2704,   201.520706,   431.393402
   2705,   17.8108749,   341.135406
   2706,   103.642372,   431.419189
   2707,   18.0336952,   361.152679
   2708,   28.8913136,     430.8255
   2709,   18.7477016,    411.00824
   2710,   18.5832996,   401.072083
   2711,   18.4390812,   391.109406
   2712,    17.893261,   351.127991
   2713,   17.7228451,   321.157928
   2714,   17.6996861,   291.255737
   2715,   17.6690311,   281.297699
   2716,   17.6258698,   261.407959
   2717,   152.501328,   432.482819
   2718,   17.6549778,   231.784332
   2719,     17.92309,   221.851288
   2720,   21.9164829,   180.270889
   2721,   20.5126076,   191.090057
   2722,   90.2974396,   129.739166
   2723,    95.900032,    125.78244
   2724,   105.552879,   122.673096
   2725,   231.068329,   421.109283
   2726,   22.8798084,    169.39975
   2727,    57.422802,   157.156769
   2728,   78.0390244,   149.524414
   2729,   67.7160721,    153.52533
   2730,   47.5779343,   161.882935
   2731,    36.336132,   169.258896
   2732,   159.422516,   185.355408
   2733,   113.647209,   160.843704
   2734,   119.752136,   168.069809
   2735,   95.4850464,   137.363022
   2736,    184.70668,   211.519592
   2737,   107.598267,   152.986557
   2738,   134.838028,   175.347244
   2739,   193.046982,   214.297577
   2740,   168.868729,   202.723831
   2741,   150.179932,   185.050018
   2742,   204.715332,   210.409653
   2743,   159.774902,   194.147476
   2744,   101.655167,   144.901535
   2745,    221.76059,   411.596283
   2746,   213.590332,   231.773041
   2747,   213.168991,   221.584641
   2748,   222.359909,   371.611481
   2749,   222.194565,   381.724335
   2750,   214.471252,   291.483154
   2751,   214.563171,   281.562012
   2752,   214.253799,   331.092407
   2753,   214.364227,   321.150513
   2754,    214.13382,   341.066101
   2755,   213.922577,   351.114929
   2756,   222.056213,   391.767761
   2757,   221.895874,   401.703888
   2758,   214.461212,   301.359772
   2759,    214.43927,   311.247559
   2760,   214.664124,   261.806335
   2761,   214.663605,   271.663879
   2762,   214.565887,   251.908478
   2763,   222.546814,   361.415558
   2764,   214.187714,   241.924774
   2765,    17.534029,   251.530411
   2766,   93.6055222,   430.452087
   2767,   58.9731941,   429.100891
   2768,   37.8872604,    421.18811
   2769,   28.0394955,   411.351807
   2770,   27.7524986,   401.447266
   2771,   27.5190907,   391.496429
   2772,   27.3015747,    381.48465
   2773,   27.0620155,   371.457977
   2774,    26.820591,   361.440491
   2775,   26.6054573,   351.399506
   2776,   153.382248,   423.896118
   2777,   143.815979,   423.987091
   2778,   134.331329,   423.874603
   2779,   26.4464283,   341.406586
   2780,   26.3600674,   321.508331
   2781,   26.3564491,   331.443054
   2782,   124.849983,   423.626495
   2783,    105.99263,   422.513428
   2784,   115.409042,   423.239105
   2785,   163.002365,   423.562836
   2786,   182.354645,   422.498108
   2787,   172.626923,   423.032104
   2788,   192.139038,    422.08847
   2789,   201.947937,    421.80249
   2790,   26.3342533,   311.507416
   2791,    26.197031,   262.022369
   2792,   26.2707062,   271.888672
   2793,   26.4298286,   223.142288
   2794,   211.780136,   421.602783
   2795,   26.2968006,   281.778931
   2796,   26.3159542,   301.571564
   2797,   26.2883301,   291.656311
   2798,   27.0973434,   213.289749
   2799,   28.2611942,   203.253067
   2800,   30.0347576,   192.908447
   2801,    48.531311,   430.269104
   2802,   83.0967178,   428.802673
   2803,   17.4989491,   241.682404
   2804,   87.3554153,   143.706131
   2805,   70.4144516,   162.467819
   2806,   60.4941711,   164.805527
   2807,   53.0667114,   168.862625
   2808,   46.4959984,   176.281204
   2809,   32.5635643,   181.976212
   2810,   28.4249058,   421.113434
   2811,   221.445206,   421.373566
   2812,    107.18959,   166.544495
   2813,   114.041496,   173.335052
   2814,   160.113297,   203.038818
   2815,   181.578644,   221.821457
   2816,   175.219513,   209.885345
   2817,     131.8685,   180.184189
   2818,   140.342361,   185.188263
   2819,   201.951996,   220.897522
   2820,   212.054947,   411.827515
   2821,   100.015236,   159.496002
   2822,   214.000168,   211.825668
   2823,    204.30072,    232.23851
   2824,   213.186615,   371.625977
   2825,   212.485809,   391.942139
   2826,    212.22702,    401.91095
   2827,   212.765793,   381.803619
   2828,   205.953079,   291.158295
   2829,    205.87326,   310.872986
   2830,   205.561081,   340.606171
   2831,   205.286362,   350.584778
   2832,     205.9384,   300.995087
   2833,   205.834167,   320.698608
   2834,   213.568222,   361.282654
   2835,   205.740067,   330.595459
   2836,   206.087753,   281.257355
   2837,   205.507385,   242.299561
   2838,   206.217133,   271.437103
   2839,   206.262436,   261.700623
   2840,   206.093475,   252.023026
   2841,   26.0267487,   252.242432
   2842,   26.0674992,   232.907135
   2843,   34.6981125,   224.635895
   2844,   35.5109711,   215.176453
   2845,   151.102127,   194.212784
   2846,     96.49543,   421.186554
   2847,    36.907917,   205.581879
   2848,   34.8160973,   291.843719
   2849,   34.8042564,   281.995056
   2850,   39.0472488,   195.756149
   2851,   65.3633423,   417.147949
   2852,   78.1826935,    415.36908
   2853,   126.413841,   415.007843
   2854,   117.346222,   414.583893
   2855,   172.618698,   413.845032
   2856,   135.562897,   415.345093
   2857,   144.654816,   415.576447
   2858,   35.4307899,   361.390076
   2859,   34.8262291,   331.464325
   2860,   34.7470665,   272.189392
   2861,   36.8097115,   401.543732
   2862,   36.4492455,   391.603088
   2863,   35.7785835,   371.429626
   2864,    36.116993,   381.518677
   2865,   47.3799057,   420.749695
   2866,   108.477219,   413.869385
   2867,   34.9234962,   341.328674
   2868,   35.1249428,   351.300201
   2869,   34.7779617,   301.632019
   2870,   56.8020515,   419.550812
   2871,   163.172455,   414.900238
   2872,   192.192688,   412.257874
   2873,   182.271133,   412.800873
   2874,   153.786942,   415.584167
   2875,    34.791687,     321.4841
   2876,   86.9676285,   418.816101
   2877,   34.7621193,   311.495239
   2878,   25.9220219,   242.580612
   2879,   54.7182274,   181.214066
   2880,   70.5512466,   171.894653
   2881,   61.0084648,   173.666321
   2882,   42.1064529,   185.794952
   2883,   37.2760429,    411.39386
   2884,   93.0117569,   152.087097
   2885,   101.514679,   173.322189
   2886,   151.607056,   203.792648
   2887,   93.2895966,   167.248169
   2888,   168.919571,   210.382172
   2889,   120.658203,   179.630875
   2890,   178.259888,   215.255371
   2891,   133.613327,   190.707504
   2892,   192.927734,   225.677231
   2893,   83.0086288,   160.649689
   2894,   202.308136,   401.964111
   2895,   143.464127,   194.659576
   2896,   204.050888,   371.179535
   2897,   202.527496,   391.788635
   2898,   204.753433,   360.733215
   2899,   203.157318,   381.477448
   2900,   195.714417,   234.079514
   2901,   197.182343,   339.734619
   2902,   197.556046,   300.418335
   2903,   197.657883,    290.57254
   2904,    197.80806,    280.75827
   2905,   197.372787,   329.825775
   2906,    197.53772,   310.174377
   2907,   197.942276,    271.07016
   2908,    197.48967,    319.93927
   2909,   34.5943069,   262.423309
   2910,   197.995941,   261.553131
   2911,   197.173615,   243.105438
   2912,   43.8342628,   217.384583
   2913,   197.821655,   252.252304
   2914,   34.2816277,   234.076035
   2915,   45.3245583,   208.381851
   2916,   202.103271,   411.954041
   2917,   99.8387527,    412.47525
   2918,   43.1958923,    272.24057
   2919,   47.6322708,   199.181763
   2920,   43.2392197,    281.92746
   2921,   119.123123,   405.825287
   2922,   71.0957947,   410.612305
   2923,   127.802032,   406.302216
   2924,   110.754623,    405.32663
   2925,   63.7833557,   409.208191
   2926,    136.73526,   406.675598
   2927,   46.4203072,   411.020996
   2928,   45.3065529,   391.342468
   2929,   43.5386238,   350.870148
   2930,   43.1768494,   331.049896
   2931,   44.8385887,    381.21991
   2932,   43.3111649,   340.853516
   2933,   55.3871498,    410.10025
   2934,   145.511703,   406.992584
   2935,   162.538452,   406.504425
   2936,   43.9212303,   360.877258
   2937,    181.53598,      402.375
   2938,   44.3779678,   370.976501
   2939,   191.908569,   401.878357
   2940,   153.846832,    407.71106
   2941,   83.4920425,    405.59787
   2942,   43.1358147,   321.099243
   2943,   91.3656998,    409.71936
   2944,   43.2103882,   291.653656
   2945,   43.1383934,   311.190674
   2946,   43.1575775,   301.339569
   2947,   34.3621063,   252.801559
   2948,   34.1910629,   243.407623
   2949,   79.9978104,   172.871643
   2950,   45.8065376,   401.162079
   2951,   60.6982574,   185.203476
   2952,   68.0030899,   181.395447
   2953,   50.9012794,   189.992142
   2954,   161.062195,   211.794785
   2955,   127.329582,   185.494019
   2956,    171.14064,   217.826492
   2957,   108.901245,   179.451431
   2958,   177.913361,   231.271896
   2959,   185.074539,   228.683655
   2960,   137.836182,   195.643875
   2961,   196.800201,   349.575836
   2962,    191.89679,   391.178131
   2963,   194.987869,   369.991547
   2964,   193.329788,   380.442719
   2965,   196.083221,   359.620361
   2966,   53.5002899,    211.32756
   2967,   189.125595,   328.731598
   2968,   42.8638992,   226.291656
   2969,   189.351959,    299.56778
   2970,   189.479172,   289.798798
   2971,   189.701706,   270.588715
   2972,   189.617691,   280.112274
   2973,    189.25264,    318.92926
   2974,   189.336441,   309.215759
   2975,   42.9496574,   262.570312
   2976,    187.70697,   236.007965
   2977,   189.769272,    261.31076
   2978,   55.4814415,   202.751022
   2979,   189.653885,     252.4431
   2980,   189.128006,   244.015472
   2981,    103.01944,    404.69162
   2982,   51.6454239,   271.934692
   2983,   111.656258,   395.667358
   2984,   120.665054,   396.816467
   2985,   137.616531,    398.24765
   2986,   147.363083,   397.286041
   2987,   64.2917557,   399.661499
   2988,    54.873764,   400.403656
   2989,   51.5293465,   330.247406
   2990,   51.6852531,   340.057434
   2991,   53.5379257,   380.474182
   2992,   160.374786,   398.589111
   2993,   75.1239853,   399.239868
   2994,   51.9705162,   349.988495
   2995,   52.9119568,   370.151001
   2996,   179.567612,   389.899384
   2997,   51.7203827,   281.556976
   2998,   168.910187,   395.126312
   2999,   89.6050873,   397.977356
   3000,   52.4124908,   359.960419
   3001,    51.487545,   320.368256
   3002,   95.8126526,   402.025848
   3003,   51.5123787,   310.548584
   3004,   51.6528816,   291.190338
   3005,   51.5670433,   300.779724
   3006,   42.4112282,   244.101868
   3007,   42.6118317,   253.125366
   3008,   42.3210754,   235.232468
   3009,   54.2772636,   390.582581
   3010,   77.4734955,   182.705856
   3011,   88.7826462,   176.264236
   3012,    68.727684,   191.498764
   3013,   115.879768,    185.49321
   3014,   174.418457,   224.775436
   3015,   129.097855,   196.863739
   3016,   96.8985367,   180.921448
   3017,   63.3881454,   389.484131
   3018,    52.230484,   219.886215
   3019,    188.89119,   338.408905
   3020,    183.69397,   378.169678
   3021,    187.57457,   357.918335
   3022,   186.088715,   367.820557
   3023,   62.4167023,   205.990326
   3024,   188.380478,   348.037109
   3025,   181.262329,   298.549469
   3026,   181.452744,   279.391693
   3027,   51.2842484,   262.390686
   3028,   181.574524,   269.999023
   3029,   180.926529,   327.268738
   3030,   181.399857,   288.932129
   3031,   181.218643,   308.099335
   3032,   181.132645,   317.642059
   3033,   181.620209,   260.894409
   3034,   181.590775,   252.339584
   3035,   104.798309,   398.604401
   3036,    51.007988,   228.178009
   3037,   60.3385086,   280.912994
   3038,   115.023422,   386.989319
   3039,   131.071899,   387.491943
   3040,   137.581696,   391.466431
   3041,   155.762756,   391.764954
   3042,    60.160141,   338.953644
   3043,   62.2880287,   379.145599
   3044,   84.2919006,   392.303223
   3045,    163.47757,   387.331085
   3046,   60.0144386,    329.12677
   3047,   170.334198,   381.668457
   3048,   61.4729156,   368.888885
   3049,   95.4577713,   391.910614
   3050,   60.4912109,   348.827118
   3051,   60.9479942,   358.760284
   3052,   100.383675,   395.519196
   3053,   59.9622231,   319.358551
   3054,    60.194397,   290.503479
   3055,   60.0103378,   309.634399
   3056,   60.0932426,   299.983276
   3057,   50.8560028,   253.122437
   3058,    50.655262,   244.519775
   3059,   50.0752754,   236.305038
   3060,   85.5777283,   185.124268
   3061,   64.1394501,   199.808167
   3062,   76.2350159,   191.772812
   3063,   181.493332,   244.583237
   3064,    152.41568,   213.684341
   3065,   93.1902313,   188.665771
   3066,   142.224579,   215.669617
   3067,   72.3846588,    387.65271
   3068,   118.142776,   197.518738
   3069,   163.537842,   220.408585
   3070,   175.181915,   238.826019
   3071,    135.82283,   201.700119
   3072,    61.484581,   213.891846
   3073,   60.7831726,   222.535294
   3074,   180.596146,   336.712158
   3075,   177.457932,   364.821686
   3076,   178.998795,   355.523224
   3077,   59.7962456,   193.771988
   3078,   179.955765,    346.06958
   3079,    60.212574,    271.22052
   3080,   173.538193,   278.657837
   3081,   173.422638,   288.062897
   3082,   172.757629,   325.515747
   3083,   173.039551,    316.16922
   3084,   173.206223,   306.824646
   3085,   173.342972,   297.474945
   3086,    173.72522,   269.379303
   3087,   109.182869,   383.246368
   3088,   173.739838,   260.330841
   3089,   127.370125,    379.27182
   3090,   138.603409,   381.335419
   3091,   150.766464,   384.543457
   3092,   157.391998,   380.397186
   3093,   68.8608246,   337.616241
   3094,   91.2550812,   387.352417
   3095,   162.994049,   375.501129
   3096,   70.9120483,   377.321289
   3097,    96.180542,     384.3078
   3098,   69.2063522,   347.473785
   3099,   70.0879745,   367.297424
   3100,   56.6058578,   236.905441
   3101,   68.8678131,   289.820129
   3102,   59.6429901,   261.756012
   3103,    68.685051,   327.848389
   3104,   69.6331863,   357.351898
   3105,    100.20237,   386.680267
   3106,   68.5832062,   318.224243
   3107,   68.6081924,    299.43161
   3108,   68.4417191,   308.816559
   3109,   60.1236115,   244.033707
   3110,    58.723278,   252.879303
   3111,   69.5558319,   199.545395
   3112,   75.6977997,   199.982803
   3113,   174.681213,    373.68573
   3114,   173.646347,   251.692917
   3115,   83.3503494,   193.375473
   3116,   155.584518,   223.631058
   3117,    81.071106,   384.165131
   3118,   75.4664001,   207.642868
   3119,   104.358803,    186.20134
   3120,   96.5125885,    199.85701
   3121,   171.386444,    234.70813
   3122,    107.05265,   198.353683
   3123,    124.98735,   203.391571
   3124,   69.5110779,   215.373505
   3125,   69.3754044,   207.431168
   3126,   172.298248,   334.685394
   3127,   168.762451,    361.24115
   3128,   170.334671,   352.729187
   3129,   69.3971176,   224.639694
   3130,   69.1279755,   280.127655
   3131,   171.475189,   343.724701
   3132,   165.615906,   287.178375
   3133,   166.028488,   277.932098
   3134,     164.7117,   323.579559
   3135,   122.117882,   381.099426
   3136,   165.442551,   296.413452
   3137,   165.105637,   314.593353
   3138,   166.396591,   268.805878
   3139,   165.338577,    305.51593
   3140,   132.826935,   373.740173
   3141,   145.221497,     376.7883
   3142,   151.573074,   373.137451
   3143,   157.273117,   370.944946
   3144,   88.9849167,    380.88501
   3145,    69.023468,   270.138611
   3146,   79.5452118,   375.005859
   3147,   96.2690048,   379.193756
   3148,    78.223732,   346.045929
   3149,    68.471199,   236.132004
   3150,   77.9421234,   336.161346
   3151,   78.9044342,   365.536377
   3152,   102.987274,   380.354218
   3153,   78.6072617,   355.861389
   3154,    68.142746,   260.201324
   3155,   77.6754456,   326.428009
   3156,   76.6390915,   298.832733
   3157,   65.5863113,   251.173904
   3158,   77.3509979,   316.968964
   3159,   76.9726868,   307.909119
   3160,   147.651352,   227.626251
   3161,    166.30545,   250.853485
   3162,   166.371277,   368.868011
   3163,   160.173447,   232.656006
   3164,   87.8019714,   202.778702
   3165,    127.65448,   216.091049
   3166,   77.8248749,   215.064102
   3167,   173.972824,   244.014328
   3168,   113.695694,   203.954559
   3169,   159.579071,   259.434387
   3170,    77.942131,   224.858139
   3171,   164.075012,   332.393524
   3172,    157.90448,   364.825165
   3173,   77.0539322,   289.688324
   3174,   161.542328,   349.584625
   3175,   78.6547089,   234.430267
   3176,   121.762604,    375.06369
   3177,   158.797287,   277.093689
   3178,    162.99469,   341.053223
   3179,   158.037399,   286.265045
   3180,   159.590637,   268.301971
   3181,    156.87764,   321.579071
   3182,   139.006088,   368.209961
   3183,   146.958344,   362.960205
   3184,   77.9443359,    269.10141
   3185,   96.6628799,   371.937317
   3186,   73.3401642,   247.110031
   3187,   157.601151,   295.381958
   3188,   104.988281,   372.803986
   3189,   113.476883,   375.412292
   3190,   77.8111801,   257.534607
   3191,   87.7348251,   344.685089
   3192,   87.4032974,   334.693451
   3193,    157.50145,   304.245819
   3194,   88.0044937,   354.502533
   3195,   88.0015869,   363.993744
   3196,   77.9919357,   279.694641
   3197,   87.0742645,   324.831299
   3198,   85.7226562,   306.209656
   3199,    86.585083,   315.257233
   3200,   134.623398,    223.30127
   3201,   166.084808,   240.876434
   3202,   152.647675,   238.944931
   3203,   80.9331665,   208.241638
   3204,   92.8151703,    205.65062
   3205,   102.733543,   204.901749
   3206,   120.471962,   209.870392
   3207,   88.1260681,   372.939972
   3208,   140.013672,   232.398529
   3209,   108.923645,   210.501602
   3210,   153.401169,   267.805206
   3211,   86.7910995,   224.616867
   3212,   156.041367,   329.928589
   3213,   84.7021561,   290.277802
   3214,   124.385338,   366.672485
   3215,   152.939682,   346.146637
   3216,   81.3631439,   243.658569
   3217,   151.792572,   275.883331
   3218,   150.482895,   285.115784
   3219,   154.744308,   338.089752
   3220,   138.016907,   355.091522
   3221,   84.8757553,   251.892944
   3222,    97.322998,    363.25708
   3223,   86.5333099,    268.70462
   3224,   114.647606,   366.299866
   3225,   106.320694,   364.113525
   3226,   149.581329,   294.439301
   3227,    97.103569,   333.259155
   3228,   97.7387543,   343.563171
   3229,    98.054863,   353.640839
   3230,    96.650177,   323.114044
   3231,    149.72229,   311.762238
   3232,   96.0298691,    313.08075
   3233,   94.6114502,   303.431335
   3234,    87.536438,   279.934265
   3235,   86.0663223,   216.624725
   3236,   149.788803,   303.175201
   3237,    121.94474,   222.505234
   3238,   152.524612,   250.370346
   3239,   87.6902924,   209.669861
   3240,   150.393753,   354.045135
   3241,   97.9466171,   210.871735
   3242,   159.394363,   250.838699
   3243,   153.256226,   259.510376
   3244,   140.888489,   263.546631
   3245,    143.84198,   242.155029
   3246,   94.4400635,   231.551346
   3247,   148.191788,   327.319977
   3248,   91.9526825,   294.130524
   3249,    130.35878,   359.197632
   3250,   92.2980576,   248.900558
   3251,   145.017593,   342.335663
   3252,   96.4113693,   257.584595
   3253,   94.8192291,   268.000122
   3254,   144.315964,   272.996582
   3255,   121.890915,   358.246826
   3256,   115.460747,   359.555573
   3257,   109.163948,   353.749908
   3258,   94.3786697,   275.611084
   3259,    146.87738,   334.943207
   3260,   106.707718,   331.992401
   3261,   107.697639,   342.564056
   3262,   140.666351,   294.245758
   3263,    106.21682,   321.536255
   3264,    105.83049,   310.730103
   3265,   95.3060989,   285.520172
   3266,   142.504944,   302.909515
   3267,   142.616058,   311.037445
   3268,   115.383659,   216.359009
   3269,   121.714546,   234.855087
   3270,   96.6222076,   223.769394
   3271,   109.900414,   222.900253
   3272,   138.670639,   254.872803
   3273,   127.418449,   271.479248
   3274,   141.907043,    317.48349
   3275,    99.176918,   237.875809
   3276,   104.474632,   299.754913
   3277,   103.400131,    249.78157
   3278,   104.397568,   261.417023
   3279,   119.229156,   350.293671
   3280,   127.180336,   349.627838
   3281,   102.383705,   269.868378
   3282,   117.304375,   340.953857
   3283,    115.85775,   330.956696
   3284,   115.363792,   320.576569
   3285,   131.139618,   278.122437
   3286,   100.365974,   278.645966
   3287,   131.952515,   290.187408
   3288,   139.292145,   331.969299
   3289,   100.815689,   290.769592
   3290,   135.807449,   302.375793
   3291,   136.055603,   246.139221
   3292,   116.187386,   228.576965
   3293,   132.472214,   237.514114
   3294,   104.390594,   229.834076
   3295,   135.202499,   344.180176
   3296,   116.421982,   238.556885
   3297,   111.009163,   234.917267
   3298,   124.362679,   263.559204
   3299,   115.613136,   309.283417
   3300,   119.793381,   277.213013
   3301,   109.459106,   254.352295
   3302,   126.607513,   339.927734
   3303,   109.453506,   264.119843
   3304,   131.871597,   336.103943
   3305,   109.628899,   271.220612
   3306,   124.185165,   330.188751
   3307,   124.059502,   320.625793
   3308,   109.459389,   282.879486
   3309,   124.653732,   285.102356
   3310,   116.180023,   295.204834
   3311,   127.144646,   299.480896
   3312,   131.693619,   329.952271
   3313,   128.464615,   250.610352
   3314,   117.116844,   268.349304
   3315,   107.460846,    242.22998
   3316,   125.113411,   310.356506
   3317,   114.348412,   260.488342
   3318,   116.097733,   246.688812
   3319,   120.922798,   255.360489
   3320,   131.921539,   98.8266068
   3321,     10.91961,   159.642242
   3322,   101.849968,    130.65657
   3323,    214.61853,   103.044365
   3324,   229.009521,    105.92662
   3325,   157.189621,   110.696854
   3326,   227.453629,   124.362389
   3327,   220.644302,   112.900528
   3328,   211.969498,   112.526642
   3329,   219.591156,   123.344383
   3330,   133.829269,   150.919083
   3331,   144.766983,   125.103699
   3332,   200.693802,   137.502731
   3333,   111.383591,   191.853455
   3334,   100.324211,   193.175232
   3335,   125.707901,   174.535721
   3336,   173.112778,   119.740067
   3337,      150.931,   129.376053
   3338,   204.326416,   123.064491
   3339,   122.635803,   191.409836
   3340,   90.1929626,   195.998535
   3341,   171.590836,   404.367493
   3342,   163.087296,   137.815933
   3343,   185.072433,   131.909927
   3344,   81.8442841,   201.086914
   3345,   141.308487,   175.595947
   3346,    149.98999,   176.043915
   3347,   103.475952,   217.075027
   3348,   188.241776,   218.692123
   3349,   129.070114,   397.439789
   3350,   182.312668,      149.903
   3351,   171.339706,   127.466255
   3352,   153.870117,   401.346497
   3353,    175.42955,   123.298058
   3354,   175.290359,   137.343002
   3355,   105.357689,   390.125977
   3356,   132.556229,   209.419876
   3357,    92.512764,   215.295929
   3358,   59.4109306,   231.005661
   3359,   180.671097,   237.608566
   3360,   122.284775,   388.318817
   3361,   143.676544,   388.519806
   3362,   159.608047,   357.528534
   3363,   143.593781,   204.043427
   3364,    127.82283,   229.577637
   3365,   87.3910751,   232.868332
   3366,   89.7127304,   240.844406
   3367,   167.191422,   228.285248
   3368,   117.030388,   381.237061
   3369,   124.993393,   242.471008
   3370,   166.496521,   259.842682
   3371,   142.217789,   349.105042
   3372,   86.7575912,   259.113312
   3373,   157.371048,   313.080902
   3374,   149.308823,   319.644531
   3375,   98.3205872,   245.760696
   3376,   133.208893,   349.333435
   3377,   137.799667,   338.779724
   3378,   140.337082,   324.572906
   3379,   159.551498,   243.381516
   3380,   145.680679,   251.855057
   3381,   131.474304,   258.929016
   3382,   132.480072,   321.925659
   3383,   135.043015,   312.645477
   3384,   147.028381,   260.578339
   3385,   134.419342,   266.917358
   3386,   84.3166809,   297.839996
   3387,   143.043335,   283.736053
   3388,   148.570053,   267.242188
   3389,   137.026535,   274.545654
   3390,   136.175079,   281.977844
*Element, type=CPE3T
 1, 1352,  486,  421
 2,  412,  402,  404
 3,  866,  874,  802
 4,  652,  571,  568
 5, 1362,  729,  573
 6, 1381, 1050, 1133
 7, 1011,  960,  966
 8, 1072, 1022, 1024
 9, 1136, 1052, 1095
10, 1080, 1034, 1035
11, 1144, 1063, 1100
12, 1094, 1047, 1000
13, 1097, 1053, 1003
14, 1205, 1129, 1165
15, 1409, 1192, 1228
16, 1209, 1193, 1191
17, 1224, 1183, 1160
18, 1256, 1201, 1223
19, 1408, 1265, 1237
20, 1277, 1245, 1208
21, 1286, 1255, 1222
22, 1346, 1244, 1211
23, 1358,  795,  730
24, 1380,  937, 1130
25, 1370, 1391,  946
1154, 2278, 1749, 1723
1155, 1767, 1846, 1773
1156, 2310, 2056, 1984
1157, 2261, 2235, 2203
1158, 2137, 2174, 2129
1159, 2153, 2099, 2150
1160, 2142, 2144, 2089
1161, 2306, 2265, 2239
1162, 2196, 2317, 2228
2136, 2422, 2380, 2412
2137, 2414, 3353, 3336
2138, 3351, 2494, 2460
2139, 2544, 2539, 2536
2140, 2736, 2648, 2652
2141, 2925, 2922, 2851
2142, 3348, 2736, 2739
2143, 2881, 2807, 2806
2144, 2952, 2881, 2880
2145, 3176, 3089, 3135
2146, 3157, 3110, 3109
2147, 3203, 3166, 3118
2148, 3204, 3239, 3164
2149, 3372, 3190, 3221
2150, 3248, 3386, 3213
2151, 3255, 3249, 3214
2152, 3289, 3248, 3265
2153, 3274, 3383, 3267
2154, 3290, 3262, 3266
2155, 3357, 3235, 3239
2156, 3389, 3390, 3285
*Element, type=CPE4T
  26,  437,  441,  502,  583
  27,   59,  462,  465,   58
  28,  438,  109,  110,  495
  29,   52,  528,  608,   51
  30,  463,  464,  524,  644
  31,  359,   37,    2,   38
  32,  339,   36,   37,  359
  33,  340,   34,   35, 1335
  34,   34,  340,  341,   33
  35,  342,   32,   33,  341
  36,  338,   31,   32,  342
  37,  392, 1351,  382,  383
  38,  447,  124,  125,  455
  39,  458,   62,   63,  466
  40,  544,  553,  619,  620
  41,  443,  117,  118,  444
  42,  433,  114,  115,  434
  43,  496,  438,  582,  600
  44,  437,  111,  112,  441
  45,  101,  527,  548,  100
  46,  440,  106,  107,  439
  47,  114,  433,  432,  113
  48,  116,  431,  434,  115
  49,  472,  471,  526,  557
  50,  102,  445,  527,  101
  51,  120,  446,  435,  119
  52,   65,  459,  467,   64
  53,  445,  442,  503,  527
  54,  430,  123,  124,  447
  55,   49,    3,   50,  694
  56,   51,  608,  694,   50
  57,  721,  792,  608,  528
  58,  528,   52,   53,  529
  59,  463,   55,   56,  464
  60,   60,  457,  462,   59
  61, 1335,  405,  413,  410
  62,  339,  359,  405, 1335
  63,  528,  529,  611,  721
  64,  529,  551,  603,  611
  65,   57,  461,  464,   56
  66,  678,  586,  593,  679
  67,  550,  545,  636,  640
  68,  466,   63,   64,  467
  69,  584,  585,  518,  515
  70,   93,  484,  523,   92
  71,  547,   98,   99,  607
  72,  541,  540,  469,  468
  73,  485,   91,   92,  523
  74,   90,  468,  469,   89
  75,   89,  469,  470,   88
  76,   88,  470,  471,   87
  77,   87,  471,  472,   86
  78,   86,  472,  473,   85
  79,  474,   84,   85,  473
  80,  473,  472,  557,  534
  81,   82,  479,  476,   81
  82,   81,  476,  477,   80
  83,  477,  476,  536,  537
  84,   80,  477,  478,   79
  85,   78,    4,   79,  478
  86,  479,  475,  563,  538
  87,  475,   83,   84,  474
  88,  625,  624,  535,  534
  89,  468,  485,  554,  541
  90,  481,  480,  564,  565
  91,  521,   70,   71,  555
  92,   69,  480,  481,   68
  93,  434,  431,  512,  505
  94,  543,   95,   96,  533
  95,  495,  110,  111,  437
  96,  496,  108,  109,  438
  97,  484,   93,   94,  522
  98,  440,  439,  506,  581
  99,  442,  104,  105,  499
 100,  119,  435,  444,  118
 101,  104,  442,  445,  103
 102,  121,  429,  446,  120
 103,  436,  122,  123,  430
 104,  102,    5,  103,  445
 105,  638,  716,  717,  637
 106,  465,  462,  530,  531
 107,  552,  531,  638,  637
 108,  370,  384, 1343,  369
 109,  401,  411,  422, 1350
 110,  402,  390,  394,  404
 111,  343,   30,   31,  338
 112,   30,  343,  344,   29
 113,  343,  338,  369,  363
 114,  345,   28,   29,  344
 115,  344,  343,  363,  372
 116,  346,   27,   28,  345
 117,  347,   26,   27,  346
 118,  372,  364,  345,  344
 119,  360,   25,   26,  347
 120,   24,  348,  349,   23
 121,  378,  387,  360,  347
 122,   23,  349,  362,   22
 123,  350,   21,   22,  362
 124,  351,   20,   21,  350
 125,   20,  351,  352,   19
 126,  352,  351,  365,  375
 127,   19,  352,  353,   18
 128,  361,   17,   18,  353
 129,   17,  361,  354,   16
 130,   16,  354,  355,   15
 131,  356,  355,  366,  368
 132,   14,  356,  357,   13
 133,  357,  358,   12,   13
 134,    1,   12,  358,  137
 135,  428,  411,  412,  491
 136,   36,  339, 1335,   35
 137,   38,   39,  576,  419
 138,  386, 1342, 1337,  367
 139,  410,  367,  340, 1335
 140,  378,  395,  389,  387
 141,  379,  365,  374,  397
 142,  346,  345,  364,  373
 143,   25,  360,  348,   24
 144,  414,  391, 1350,  422
 145,  385,  366,  376,  399
 146,  351,  350,  374,  365
 147,  381,  375,  365,  379
 148,  366,  385,  424,  368
 149,  355,  354,  376,  366
 150,  449, 1339,  368,  424
 151,   15,  355,  356,   14
 152, 1339,  357,  356,  368
 153,  407,  418,  567,  416
 154, 1343,  372,  363,  369
 155,  353,  352,  375, 1338
 156,  424,  417,  456,  449
 157,  646,  654,  807,  680
 158,  371,  377,  349,  348
 159,  370,  369,  338,  342
 160,  130,  453,  451,  129
 161,  377,  394,  390,  388
 162,  347,  346,  373,  378
 163,  377,  388,  362,  349
 164,  381,  379, 1350,  391
 165,  354,  361,  409,  376
 166,  135,  456,  452,  134
 167,  400,  386,  367,  410
 168,  427,  493,  393, 1351
 169,  137,  358,  449,  136
 170, 1337,  370,  342,  341
 171,  364,  382,  380,  373
 172,  393,  380,  382, 1351
 173,  350,  362,  388,  374
 174, 1338,  409,  361,  353
 175,  395,  378,  373,  380
 176,  420,  566,  488,  425
 177,  388,  390,  397,  374
 178,  411,  401,  402,  412
 179,  382,  364,  372,  383
 180,  406,  415,  398, 1348
 181,  383,  372, 1343,  392
 182, 1355,  384,  407,  416
 183,  386,  400,  418,  407
 184, 1342,  384,  370, 1337
 185,  408,  420,  425,  417
 186,  399,  376,  409,  415
 187,  340,  367, 1337,  341
 188,  413,  426,  400,  410
 189,  387,  371,  348,  360
 190,  387,  389,  396,  371
 191,  401,  397,  390,  402
 192,  394,  377,  371,  396
 193,  397,  401, 1350,  379
 194,  453,  130,  131,  500
 195,  407,  384, 1342,  386
 196,  404,  394,  396,  403
 197, 1352,  421,  491,  403
 198,  403,  396,  389, 1352
 199,  380,  393,  486,  395
 200,  375,  381,  398, 1338
 201, 1348,  391,  414,  406
 202,  405,  419,  423,  413
 203,  129,  451,  450,  128
 204,  412,  404,  403,  491
 205,  395,  486, 1352,  389
 206,  359,   38,  419,  405
 207,  415,  406,  420,  408
 208,  399,  415,  408,  385
 209,  489,  418,  400,  426
 210,  508,  456,  417,  425
 211,  398,  415,  409, 1338
 212,  453,  500,  577,  509
 213,  493,  427,  568,  571
 214,  572,  804,  734,  657
 215,  133,  497,  454,  132
 216,  406,  414,  566,  420
 217,  927,  926,  794,  683
 218,  448,  126,  127,  498
 219,  136,  449,  456,  135
 220,  385,  408,  417,  424
 221,  423,  492,  804,  572
 222,  419,  576,  492,  423
 223,  134,  452,  497,  133
 224,  411,  428,  494,  422
 225,  576,   39,  805,  728
 226,  426,  413,  423,  572
 227,  507,  579,  656,  594
 228,  490,  427, 1355,  416
 229,  509,  517,  451,  453
 230,  501,  510,  429,  436
 231,  429,  121,  122,  436
 232,  455,  125,  126,  448
 233,  507,  516,  455,  448
 234,  483,   66,   67,  482
 235,  431,  116,  117,  443
 236,  635,  634,  541,  554
 237,  113,  432,  441,  112
 238,  504,  502,  441,  432
 239,  618,  609,  532,  525
 240,  525,  532,  458,  466
 241,  689,  720,  605,  642
 242,  546,  547,  614,  610
 243,   97,  546,  533,   96
 244,  439,  107,  108,  496
 245,  106,  440,  499,  105
 246,  433,  434,  505,  513
 247,  548,  527,  503,  684
 248,  446,  429,  510,  514
 249,  510,  501,  593,  586
 250,  498,  127,  128,  450
 251,  448,  498,  579,  507
 252,  567,  570,  490,  416
 253,  450,  451,  517,  580
 254,  500,  131,  132,  454
 255,  573,  428,  491, 1362
 256,  680,  807,  758,  723
 257,  646,  680,  578,  645
 258,  569,  508,  425,  488
 259,  457,   60,   61,  460
 260,  460,   61,   62,  458
 261,  459,   65,   66,  483
 262,  435,  446,  514,  515
 263,   68,  481,  482,   67
 264,  633,  629,  539,  540
 265,  757,  681,  722,  793
 266,  461,   57,   58,  465
 267,  460,  458,  532,  545
 268,   55,  463,  551,   54
 269,  464,  461,  552,  524
 270,  430,  447,  511,  519
 271,  711,  774,  781,  715
 272,  633,  714,  713,  629
 273,  468,   90,   91,  485
 274,  672,  587,  586,  678
 275,  555,   71,   72,  556
 276,   70,  521,  480,   69
 277,  623,  622,  538,  563
 278,  696,  711,  613,  615
 279,  606,  564,  480,  521
 280,   75,  560,  559,   74
 281,  622,  621,  536,  538
 282,   83,  475,  479,   82
 283,  561,  562,  537,  692
 284,   78,  478,  562,   77
 285,  475,  474,  535,  563
 286,  628,  627,  557,  526
 287,  539,  526,  471,  470
 288,  522,   94,   95,  543
 289,  583,  599,  495,  437
 290,  486,  393,  493,  421
 291,  487,  414,  422,  494
 292,  645,  578,  497,  452
 293,  489,  647,  567,  418
 294,  489,  657,  798,  647
 295,  650,  574,  573,  729
 296,  421,  493,  571,  491
 297,  934,   44,   45,  931
 298,  568,  427,  490,  648
 299,  428,  573,  574,  494
 300,  438,  495,  599,  582
 301,  645,  508,  569,  646
 302,  852,  840,  767,  790
 303,  436,  430,  519,  501
 304,  432,  433,  513,  504
 305,  677,  684,  503,  601
 306,  442,  499,  601,  503
 307,  431,  443,  520,  512
 308,  483,  482,  542,  549
 309,  515,  518,  444,  435
 310,  439,  496,  600,  506
 311,  452,  456,  508,  645
 312,  586,  587,  514,  510
 313,  467,  459,  553,  544
 314,  516,  511,  447,  455
 315,  501,  519,  595,  593
 316,  609,  636,  545,  532
 317,  579,  580,  724,  656
 318,  864,  936,  869,  801
 319,  580,  579,  498,  450
 320,  553,  549,  626,  619
 321,  443,  444,  518,  520
 322,  594,  596,  516,  507
 323,  556,   72,   73,  558
 324,  534,  535,  474,  473
 325,  827,  757,  793,  838
 326,  466,  467,  544,  525
 327,  470,  469,  540,  539
 328,  721,  611,  794,  862
 329,  529,   53,   54,  551
 330,  461,  465,  531,  552
 331,  462,  457,  550,  530
 332,  703,  639,  640,  686
 333,  525,  544,  620,  618
 334,  546,   97,   98,  547
 335,  682,  727,  702,  614
 336,  538,  536,  476,  479
 337,   76,  561,  560,   75
 338,  478,  477,  537,  562
 339,  706,  705,  772,  695
 340,  613,  641,  555,  556
 341,  585,  588,  520,  518
 342,  485,  523,  604,  554
 343,  512,  520,  588,  589
 344,  523,  484,  643,  604
 345,  589,  590,  505,  512
 346,  482,  481,  565,  542
 347,  543,  533,  612,  642
 348,  890,  816,  822,  887
 349,  588,  665,  664,  589
 350,  457,  460,  545,  550
 351,  607,   99,  100,  548
 352,  659,  677,  601,  581
 353,  459,  483,  549,  553
 354,  708,  713,  786,  785
 355,  644,  603,  551,  463
 356,  484,  522,  605,  643
 357,  590,  591,  513,  505
 358,  558,   73,   74,  559
 359,  558,  559,  616,  615
 360,  606,  641,  715,  688
 361,  615,  613,  556,  558
 362,  616,  559,  560,  617
 363,  561,   76,   77,  562
 364,  692,  617,  560,  561
 365,  621,  692,  537,  536
 366,  695,  772,  771,  696
 367,  521,  555,  641,  606
 368,  566,  414,  487,  649
 369,  575,  487,  494,  574
 370, 1362,  652,  725,  729
 371,  490,  570,  651,  648
 372,  657,  489,  426,  572
 373, 1336,  734,  804,  728
 374,  509,  577,  655,  598
 375,  571,  652, 1362,  491
 376,  574,  650,  653,  575
 377,  602,  578,  680,  723
 378,  649,  487,  575,  730
 379,  805,   39,   40,  947
 380,  500,  454,  602,  577
 381,  454,  497,  578,  602
 382,  646,  569,  488,  654
 383,  580,  517,  658,  724
 384,  598,  658,  517,  509
 385,  727,  677,  659,  738
 386,  499,  440,  581,  601
 387,  700,  610,  614,  702
 388,  599,  583,  663,  660
 389,  591,  592,  504,  513
 390,  515,  514,  587,  584
 391,  761,  829,  828,  763
 392,  519,  511,  597,  595
 393,  763,  828,  833,  760
 394,  665,  744,  743,  664
 395,  671,  584,  587,  672
 396,  626,  690,  691,  619
 397,  589,  664,  669,  590
 398,  834,  698,  766,  857
 399,  502,  504,  592,  673
 400,  634,  633,  540,  541
 401,  596,  597,  511,  516
 402,  809,  656,  724,  879
 403,  825,  747,  754,  831
 404,  639,  638,  531,  530
 405,  648,  651,  726,  733
 406,  722,  681,  644,  524
 407,  765,  927,  683,  681
 408,  522,  543,  642,  605
 409,  610,  612,  533,  546
 410,  977,  979, 1026, 1025
 411,  624,  623,  563,  535
 412,   49,  694,  863,   48
 413,  660,  662,  582,  599
 414,  644,  681,  683,  603
 415,  683,  794,  611,  603
 416,  700,  719,  612,  610
 417,  534,  557,  627,  625
 418,  607,  682,  614,  547
 419,  623,  704,  705,  622
 420,  622,  705,  706,  621
 421,  621,  706,  617,  692
 422,  549,  542,  631,  626
 423,  670,  585,  584,  671
 424,  630,  632,  565,  564
 425,  664,  743,  749,  669
 426,  704,  623,  624,  710
 427,  615,  616,  695,  696
 428,  526,  539,  629,  628
 429,  707,  627,  628,  708
 430,  632,  698,  699,  631
 431,  698,  632,  630,  766
 432,  632,  631,  542,  565
 433,  564,  606,  688,  630
 434,  766,  630,  688,  788
 435,  554,  604,  685,  635
 436,  590,  669,  666,  591
 437,  604,  643,  718,  685
 438,  739,  663,  673,  753
 439,  596,  661,  668,  597
 440,  524,  552,  637,  722
 441,  640,  639,  530,  550
 442,  597,  668,  675,  595
 443,  566,  649,  654,  488
 444,  567,  647,  731,  570
 445,  873, 1341, 1336,  945
 446,  723,  758,  806,  655
 447,  737,  594,  656,  809
 448,  568,  648,  733,  652
 449,  653,  650,  801,  732
 450,  654,  649,  730,  807
 451,  736,  658,  598,  735
 452,  716,  784,  789,  717
 453,  670,  746,  744,  665
 454,  797,  725,  796,  865
 455,  864,  797,  865,  935
 456,  581,  506,  674,  659
 457,  662,  676,  600,  582
 458,  720,  782,  783,  718
 459,  639,  703,  716,  638
 460,  661,  596,  594,  737
 461,  840,  852,  911,  906
 462,  673,  663,  583,  502
 463,  667,  592,  591,  666
 464,  665,  588,  585,  670
 465,  595,  675,  679,  593
 466,  636,  687,  686,  640
 467,  750,  666,  669,  749
 468,  791,  685,  718,  783
 469,  701,  609,  618,  693
 470,  693,  762,  761,  701
 471,  818,  749,  743,  816
 472,  693,  618,  620,  697
 473,  756,  678,  679,  755
 474,  831,  754,  756,  859
 475,  592,  667,  753,  673
 476,  676,  674,  506,  600
 477,  703,  764,  784,  716
 478,  741,  660,  663,  739
 479,  684,  677,  727,  682
 480,  675,  751,  755,  679
 481,  668,  740,  751,  675
 482,  684,  682,  607,  548
 483, 1043, 1344,  925, 1041
 484,  687,  636,  609,  701
 485,  747,  671,  672,  754
 486,  617,  706,  695,  616
 487,  642,  612,  719,  689
 488,  790,  719,  700,  787
 489,  690,  626,  631,  699
 490,  746,  670,  671,  747
 491,  619,  691,  697,  620
 492,  832,  762,  769,  836
 493,  712,  625,  627,  707
 494,  778,  779,  712,  707
 495,  641,  613,  711,  715
 496,  768,  691,  690,  770
 497,  788,  688,  715,  781
 498,  634,  709,  714,  633
 499,  738,  812,  702,  727
 500,  755,  826,  859,  756
 501,  624,  625,  712,  710
 502,  708,  628,  629,  713
 503,  709,  634,  635,  759
 504,  776,  780,  714,  709
 505,  759,  635,  685,  791
 506,  772,  773,  842,  771
 507,  774,  711,  696,  771
 508,  780,  786,  713,  714
 509,  889,  965,  962,  886
 510,  764,  703,  686,  760
 511,  760,  833,  837,  764
 512,  720,  718,  643,  605
 513,  739,  811,  813,  741
 514,  928,  932,  863,  792
 515,  637,  717,  793,  722
 516,  723,  655,  577,  602
 517,  733,  796,  725,  652
 518,  876,  735,  806,  874
 519,  807,  730,  795,  758
 520,  731,  800,  651,  570
 521,  731,  647,  798,  868
 522,  738,  659,  674,  752
 523,  492,  576,  728,  804
 524,  575,  653, 1358,  730
 525,  795, 1358,  802,  874
 526,  657,  734,  803,  798
 527,  801,  650,  797,  864
 528,  931,   45,   46,  930
 529,  735,  598,  655,  806
 530,  658,  736,  879,  724
 531,  875,  879,  736,  808
 532,  879,  875,  949,  809
 533,  752,  674,  676,  748
 534,  662,  742,  748,  676
 535,  753,  824,  811,  739
 536,  740,  668,  661,  810
 537,  810,  661,  737,  877
 538,  660,  741,  742,  662
 539,  754,  672,  678,  756
 540,  762,  693,  697,  769
 541,  759,  791,  860,  830
 542,  745,  667,  666,  750
 543,  901,  832,  836,  903
 544,  742,  815,  814,  748
 545,  836,  769,  768,  839
 546,  762,  832,  829,  761
 547,  832,  901,  898,  829
 548,  746,  823,  822,  744
 549,  667,  745,  824,  753
 550,  826,  755,  751,  817
 551,  835,  784,  764,  837
 552,  838,  893,  894,  827
 553,  765,  681,  757,  861
 554,  760,  686,  687,  763
 555,  763,  687,  701,  761
 556,  769,  697,  691,  768
 557,  823,  746,  747,  825
 558,  770,  690,  699,  775
 559,  799,  726,  872,  942
 560, 1041,  925,  994, 1085
 561,  773,  777,  846,  842
 562,  689,  767,  782,  720
 563,  767,  689,  719,  790
 564,  775,  699,  698,  834
 565,  777,  779,  848,  846
 566,  705,  704,  773,  772
 567,  704,  710,  777,  773
 568,  710,  712,  779,  777
 569,  843,  975,  908,  847
 570,  781,  847,  849,  788
 571,  709,  759,  830,  776
 572,  749,  818,  821,  750
 573,  707,  708,  785,  778
 574,  847,  781,  774,  843
 575,  842,  846,  975,  843
 576,  967,  898,  901,  969
 577,  843,  774,  771,  842
 578,  811,  880,  881,  813
 579,  845,  855,  783,  782
 580,  939,  868,  798,  803
 581,  786,  780,  851,  856
 582,  844,  851,  780,  776
 583,  787,  700,  702,  812
 584,  857,  766,  788,  849
 585,  895,  964, 1038,  994
 586,  862,  928,  792,  721
 587,  694,  608,  792,  863
 588,  717,  789,  838,  793
 589,  765,  861,  925, 1344
 590,  943,  930,  932,  928
 591,  802, 1358,  653,  732
 592,  874,  866,  950,  876
 593,  733,  726,  799,  796
 594,  729,  725,  797,  650
 595,  800,  872,  726,  651
 596,  935,  996,  936,  864
 597,  873, 1048, 1000,  944
 598,  923,  837,  833,  900
 599,  947,   40,   41, 1044
 600,  877,  737,  809,  949
 601,  808,  736,  735,  876
 602,  876,  950, 1370,  808
 603,  738,  752,  820,  812
 604,  824,  888,  880,  811
 605,  820,  752,  748,  814
 606,  858,  852,  790,  787
 607,  741,  813,  815,  742
 608,  954, 1332,  920,  858
 609,  906,  911,  979,  977
 610,  816,  743,  744,  822
 611,  817,  751,  740,  878
 612,  878,  740,  810,  948
 613,  750,  821,  819,  745
 614,  889,  818,  816,  890
 615,  829,  898,  896,  828
 616, 1015, 1069, 1070, 1412
 617,  905,  825,  831,  924
 618,  924,  831,  859,  922
 619,  745,  819,  888,  824
 620, 1363, 1131, 1169, 1091
 621,  922, 1005,  995,  924
 622,  861,  757,  827,  895
 623,  789,  854,  893,  838
 624,  839,  768,  770,  841
 625,  821,  886,  885,  819
 626,  823,  891,  887,  822
 627,  841,  770,  775,  902
 628,  997,  941,  868,  939
 629,  784,  835,  854,  789
 630,  902,  775,  834,  917
 631,  904,  972, 1021,  976
 632,  828,  896,  900,  833
 633,  909,  849,  847,  908
 634,  840,  845,  782,  767
 635,  912,  848,  850,  915
 636,  776,  830,  899,  844
 637,  907,  919,  855,  845
 638,  952,  881,  880,  953
 639,  779,  778,  850,  848
 640,  778,  785,  853,  850
 641,  856,  853,  785,  786
 642,  839,  904,  903,  836
 643, 1371,  853,  856,  918
 644,  978,  908,  975,  912
 645, 1321, 1314, 1297, 1313
 646,  855,  860,  791,  783
 647,  851,  844,  910,  914
 648,  849,  909,  913,  857
 649,  917,  834,  857,  913
 650,  787,  812,  954,  858
 651,  884,  814,  815,  883
 652,  922,  859,  826,  892
 653,  830,  860,  921,  899
 654, 1159, 1085, 1122, 1189
 655,  796,  799,  867,  865
 656, 1091, 1372, 1364, 1363
 657,  866,  871,  938,  950
 658,  802,  732,  871,  866
 659,  868,  941,  800,  731
 660,  948,  810,  877, 1002
 661,  944, 1345, 1341,  873
 662,  732,  801,  869,  871
 663,  870,  945,  805,  947
 664,   43,  929,  933,   42
 665, 1002,  877,  949, 1051
 666,  893,  966,  960,  894
 667, 1341,  803,  734, 1336
 668,  874,  806,  758,  795
 669,  939, 1345, 1045,  997
 670,  920,  911,  852,  858
 671,  813,  881,  883,  815
 672,  954,  812,  820,  882
 673,  882,  820,  814,  884
 674,  881,  952,  955,  883
 675, 1103, 1113, 1073, 1382
 676,  883,  955,  957,  884
 677,  886,  821,  818,  889
 678,  891,  823,  825,  905
 679,  891,  905,  973,  963
 680,  819,  885,  959,  888
 681,  965,  889,  890, 1406
 682,  901,  903,  974,  969
 683,  892,  826,  817,  951
 684,  951,  817,  878, 1003
 685,  854,  897,  966,  893
 686,  895,  827,  894,  964
 687, 1135, 1094, 1000, 1048
 688,  897,  854,  835,  916
 689,  916,  835,  837,  923
 690,  904,  839,  841,  972
 691,  890,  887,  961, 1406
 692,  967, 1017, 1019,  968
 693,  905,  924,  995,  973
 694,  972,  841,  902,  985
 695,  969, 1022, 1017,  967
 696,  980, 1379,  913,  909
 697,  906,  907,  845,  840
 698, 1007,  952,  953, 1008
 699,  856,  851,  914,  918
 700,  844,  899,  971,  910
 701,  956, 1332,  954,  882
 702,  915,  850,  853, 1371
 703,  984,  912,  915,  989
 704, 1077, 1382, 1026, 1031
 705,  985,  902,  917,  983
 706,  989,  918,  987, 1036
 707,  984, 1027,  978,  912
 708,  919,  921,  860,  855
 709,  884,  957,  956,  882
 710,  899,  921,  990,  971
 711,  998, 1132, 1092, 1046
 712,  916,  923,  993,  970
 713,  968,  896,  898,  967
 714,  896,  968,  992,  900
 715,  963,  961,  887,  891
 716,  861,  895,  994,  925
 717,   47,  932,  930,   46
 718,  862,  794,  926, 1334
 719, 1334,  943,  928,  862
 720, 1100, 1006, 1055, 1139
 721,  929,   43,   44,  934
 722, 1164,  930,  943, 1089
 723,  932,   47,   48,  863
 724,  947, 1044, 1001,  870
 725, 1085,  994, 1038, 1122
 726,  867,  937,  935,  865
 727, 1050,  936,  996, 1133
 728,  940,  869,  936, 1050
 729,  867,  799,  942,  999
 730, 1003,  878,  948, 1052
 731,  940,  938,  871,  869
 732, 1345,  944, 1347, 1045
 733,  941,  998,  872,  800
 734, 1174, 1097, 1136, 1214
 735, 1043, 1041, 1088, 1089
 736, 1048,  873,  945,  870
 737,  728,  805,  945, 1336
 738,  875,  946, 1051,  949
 739,  946,  875,  808, 1370
 740, 1044,   41,   42,  933
 741, 1052,  948, 1002, 1095
 742, 1049, 1051,  946, 1391
 743,  940, 1050, 1381,  938
 744, 1046,  942,  872,  998
 745,  953,  880,  888,  959
 746,  988,  981, 1030, 1035
 747,  986,  979,  911,  920
 748,  958,  885,  886,  962
 749,  885,  958, 1012,  959
 750,  894,  960, 1006,  964
 751, 1006,  960, 1011, 1055
 752, 1109, 1110, 1066, 1072
 753,  903,  904,  976,  974
 754,  991, 1005,  922,  892
 755, 1063,  964, 1006, 1100
 756, 1017, 1066, 1067, 1019
 757, 1406, 1016, 1018,  965
 758,  970, 1014,  897,  916
 759,  973,  995, 1042, 1020
 760,  900,  992,  993,  923
 761,  961, 1412, 1016, 1406
 762, 1037,  992,  968, 1019
 763,  981,  988,  919,  907
 764,  914,  910, 1023,  982
 765, 1021, 1033, 1082, 1065
 766,  846,  848,  912,  975
 767,  972,  985, 1033, 1021
 768, 1125, 1084, 1070, 1121
 769,  977,  981,  907,  906
 770,  978,  980,  909,  908
 771,  956, 1010, 1009, 1332
 772,  914,  982,  987,  918
 773,  917,  913, 1379,  983
 774,  921,  919,  988,  990
 775, 1028,  983, 1379,  980
 776,  910,  971, 1378, 1023
 777, 1032, 1036,  987, 1071
 778,  989,  915, 1371,  918
 779, 1029,  983, 1028, 1078
 780,  986,  920, 1332, 1009
 781,  956,  957, 1369, 1010
 782, 1331, 1075, 1027,  984
 783, 1036, 1083, 1075, 1331
 784, 1007, 1008, 1057, 1058
 785, 1331,  984,  989, 1036
 786,  971,  990, 1034, 1378
 787,  892,  951, 1004,  991
 788,  995, 1005, 1056, 1042
 789, 1063, 1122, 1038,  964
 790, 1076, 1067, 1112, 1123
 791,  996,  935,  937, 1380
 792, 1372, 1130,  999, 1364
 793,  941,  997, 1132,  998
 794, 1000, 1047, 1347,  944
 795,  951, 1003, 1053, 1004
 796, 1095, 1002, 1051, 1049
 797,  937,  867,  999, 1130
 798, 1128, 1165, 1129, 1088
 799,  929, 1305, 1333,  933
 800, 1168, 1377, 1091, 1169
 801, 1391, 1370, 1381, 1133
 802, 1097, 1003, 1052, 1136
 803, 1125, 1162, 1163, 1124
 804, 1040,  993,  992, 1037
 805, 1061, 1011, 1014, 1064
 806, 1008,  953,  959, 1012
 807, 1102, 1058, 1057, 1389
 808, 1031, 1026,  979,  986
 809, 1368,  955,  952, 1007
 810, 1059, 1368, 1007, 1058
 811,  966,  897, 1014, 1011
 812, 1013, 1062,  958,  962
 813, 1012,  958, 1062, 1060
 814,  965, 1018, 1013,  962
 815,  970, 1039, 1064, 1014
 816, 1055, 1011, 1061, 1099
 817,  961,  963, 1015, 1412
 818,  963,  973, 1020, 1015
 819,  974,  976, 1407, 1024
 820, 1022,  969,  974, 1024
 821, 1084, 1125, 1124, 1068
 822,  993, 1040, 1039,  970
 823, 1103, 1102, 1182, 1113
 824,  976, 1021, 1065, 1407
 825, 1108, 1024, 1407, 1065
 826, 1079, 1029, 1078, 1115
 827, 1025, 1030,  981,  977
 828, 1103, 1059, 1058, 1102
 829, 1027, 1028,  980,  978
 830, 1071,  987,  982, 1392
 831,  985,  983, 1029, 1033
 832, 1083, 1036, 1032, 1188
 833, 1062, 1013, 1105, 1104
 834,  990,  988, 1035, 1034
 835, 1031,  986, 1009, 1077
 836, 1009, 1010, 1369, 1077
 837, 1392,  982, 1023, 1399
 838, 1399, 1023, 1378, 1081
 839, 1074, 1030, 1025, 1073
 840, 1389, 1143, 1182, 1102
 841, 1144, 1189, 1122, 1063
 842, 1005,  991, 1098, 1056
 843, 1076, 1037, 1019, 1067
 844, 1404, 1403, 1112, 1110
 845, 1041, 1085, 1128, 1088
 846, 1089, 1088, 1129, 1164
 847, 1098,  991, 1054, 1175
 848, 1344, 1043, 1334,  926
 849, 1044,  933, 1090, 1001
 850, 1347, 1047, 1240, 1045
 851,  942, 1046, 1364,  999
 852, 1213, 1135, 1001, 1090
 853, 1374, 1373, 1219, 1253
 854, 1048,  870, 1001, 1135
 855, 1391, 1133, 1093, 1049
 856, 1242, 1210, 1206, 1360
 857, 1054,  991, 1004, 1096
 858, 1096, 1004, 1053, 1137
 859, 1107, 1061, 1064, 1106
 860, 1037, 1076, 1388, 1040
 861, 1008, 1012, 1060, 1057
 862, 1059, 1077, 1369, 1368
 863, 1105, 1013, 1018, 1068
 864, 1139, 1055, 1099, 1176
 865, 1086, 1039, 1040, 1388
 866, 1106, 1064, 1039, 1086
 867, 1115, 1078, 1075, 1083
 868, 1412, 1070, 1084, 1016
 869, 1066, 1017, 1022, 1072
 870, 1042, 1056, 1101, 1413
 871, 1018, 1016, 1084, 1068
 872, 1015, 1020, 1087, 1069
 873, 1020, 1042, 1413, 1087
 874, 1034, 1080, 1081, 1378
 875, 1025, 1026, 1382, 1073
 876, 1080, 1035, 1030, 1074
 877, 1075, 1078, 1028, 1027
 878, 1067, 1066, 1110, 1112
 879, 1029, 1079, 1082, 1033
 880, 1120, 1156, 1397, 1111
 881, 1151, 1182, 1143, 1180
 882, 1151, 1180, 1191, 1152
 883, 1182, 1151, 1114, 1113
 884, 1108, 1119, 1154, 1148
 885, 1065, 1082, 1119, 1108
 886, 1111, 1032, 1071, 1120
 887, 1120, 1071, 1392, 1399
 888, 1175, 1218, 1140, 1098
 889, 1076, 1123, 1127, 1388
 890, 1056, 1098, 1140, 1101
 891, 1334, 1043, 1089,  943
 892, 1129, 1205, 1204, 1164
 893, 1172, 1245, 1277, 1214
 894, 1132, 1207, 1167, 1092
 895, 1170, 1094, 1135, 1213
 896, 1133,  996, 1380, 1166
 897, 1049, 1093, 1172, 1095
 898, 1137, 1053, 1097, 1174
 899, 1177, 1100, 1139, 1217
 900, 1142, 1413, 1101, 1178
 901, 1175, 1054, 1138, 1405
 902, 1390, 1389, 1057, 1060
 903, 1060, 1062, 1104, 1390
 904, 1059, 1103, 1382, 1077
 905, 1145, 1390, 1104, 1149
 906, 1080, 1074, 1114, 1117
 907, 1147, 1105, 1068, 1124
 908, 1146, 1106, 1086, 1398
 909, 1388, 1127, 1398, 1086
 910, 1099, 1061, 1107, 1141
 911, 1081, 1080, 1117, 1118
 912, 1072, 1024, 1108, 1148
 913, 1126, 1142, 1179, 1161
 914, 1188, 1032, 1111, 1397
 915, 1190, 1247, 1233, 1197
 916, 1113, 1114, 1074, 1073
 917, 1390, 1145, 1143, 1389
 918, 1116, 1079, 1115, 1187
 919, 1116, 1119, 1082, 1079
 920, 1399, 1081, 1118, 1120
 921, 1143, 1145, 1184, 1180
 922, 1153, 1118, 1117, 1152
 923, 1156, 1195, 1196, 1397
 924, 1231, 1196, 1195, 1230
 925, 1121, 1070, 1069, 1087
 926, 1087, 1126, 1161, 1121
 927, 1236, 1203, 1264, 1290
 928, 1178, 1101, 1140, 1218
 929, 1152, 1117, 1114, 1151
 930, 1121, 1161, 1162, 1125
 931, 1256, 1234, 1233, 1238
 932, 1296, 1290, 1269, 1340
 933, 1166, 1380, 1130, 1377
 934, 1207, 1132,  997, 1045
 935, 1207, 1045, 1240, 1307
 936, 1171, 1047, 1094, 1170
 937, 1292, 1242, 1360, 1308
 938, 1093, 1270, 1245, 1172
 939, 1210, 1242, 1272, 1241
 940, 1138, 1054, 1096, 1173
 941, 1173, 1096, 1137, 1215
 942, 1176, 1099, 1141, 1384
 943, 1405, 1138, 1216, 1400
 944, 1158, 1107, 1106, 1146
 945, 1157, 1123, 1112, 1403
 946, 1087, 1413, 1142, 1126
 947, 1149, 1104, 1105, 1147
 948, 1217, 1139, 1176, 1373
 949, 1398, 1183, 1402, 1146
 950, 1127, 1123, 1157, 1160
 951, 1124, 1163, 1186, 1147
 952, 1109, 1072, 1148, 1410
 953, 1155, 1154, 1119, 1116
 954, 1110, 1109, 1150, 1404
 955, 1410, 1185, 1150, 1109
 956, 1222, 1142, 1178, 1254
 957, 1184, 1209, 1191, 1180
 958, 1229, 1228, 1192, 1194
 959, 1118, 1153, 1156, 1120
 960, 1155, 1192, 1409, 1154
 961, 1153, 1193, 1195, 1156
 962, 1187, 1188, 1397, 1196
 963, 1141, 1107, 1158, 1181
 964, 1340, 1269, 1346, 1211
 965, 1128, 1085, 1159, 1203
 966, 1303, 1317, 1395, 1262
 967, 1127, 1160, 1183, 1398
 968, 1201, 1202, 1162, 1161
 969, 1263, 1259, 1260, 1276
 970,  930, 1164, 1204,  931
 971, 1289, 1204, 1205, 1266
 972, 1377, 1168, 1270, 1166
 973, 1093, 1133, 1166, 1270
 974, 1210, 1131, 1167, 1206
 975, 1174, 1249, 1215, 1137
 976, 1092, 1167, 1131, 1363
 977, 1214, 1277, 1249, 1174
 978, 1167, 1207, 1307, 1206
 979, 1310, 1283, 1359, 1298
 980, 1236, 1266, 1205, 1165
 981, 1177, 1221, 1144, 1100
 982, 1047, 1171, 1134, 1240
 983, 1095, 1172, 1214, 1136
 984, 1281, 1374, 1253, 1385
 985, 1235, 1304, 1288, 1264
 986, 1197, 1198, 1157, 1403
 987, 1184, 1145, 1149, 1199
 988, 1199, 1149, 1147, 1186
 989, 1200, 1158, 1146, 1402
 990, 1198, 1224, 1160, 1157
 991, 1200, 1237, 1394, 1227
 992, 1259, 1263, 1267, 1261
 993, 1411, 1185, 1228, 1259
 994, 1185, 1410, 1409, 1228
 995, 1202, 1226, 1163, 1162
 996, 1155, 1116, 1187, 1220
 997, 1188, 1187, 1115, 1083
 998, 1304, 1283, 1310, 1295
 999, 1403, 1404, 1190, 1197
1000, 1225, 1150, 1185, 1411
1001, 1152, 1191, 1193, 1153
1002, 1194, 1192, 1155, 1220
1003, 1276, 1209, 1232, 1263
1004, 1220, 1187, 1196, 1231
1005, 1193, 1209, 1230, 1195
1006, 1223, 1201, 1161, 1179
1007, 1237, 1265, 1262, 1401
1008, 1226, 1239, 1186, 1163
1009, 1254, 1178, 1218, 1282
1010, 1158, 1200, 1227, 1181
1011, 1238, 1233, 1247, 1287
1012, 1165, 1128, 1203, 1236
1013, 1235, 1159, 1189, 1258
1014,  931, 1204, 1289,  934
1015, 1305, 1289, 1266, 1296
1016, 1134, 1171, 1212, 1243
1017, 1275, 1268, 1307, 1243
1018, 1208, 1168, 1169, 1241
1019, 1210, 1241, 1169, 1131
1020, 1184, 1199, 1232, 1209
1021, 1367, 1299, 1312, 1278
1022, 1211, 1244, 1170, 1213
1023, 1246, 1211, 1213, 1090
1024, 1171, 1170, 1244, 1212
1025, 1252, 1251, 1367, 1278
1026, 1216, 1138, 1173, 1248
1027, 1248, 1173, 1215, 1279
1028, 1384, 1219, 1373, 1176
1029, 1250, 1405, 1400, 1300
1030, 1181, 1227, 1253, 1219
1031, 1322, 1315, 1327, 1328
1032, 1189, 1144, 1221, 1258
1033, 1252, 1177, 1217, 1251
1034, 1237, 1200, 1402, 1408
1035, 1179, 1142, 1222, 1255
1036, 1197, 1233, 1234, 1198
1037, 1198, 1234, 1257, 1224
1038, 1150, 1225, 1190, 1404
1039, 1232, 1199, 1186, 1239
1040, 1194, 1220, 1231, 1229
1041, 1231, 1230, 1260, 1229
1042, 1247, 1190, 1225, 1261
1043, 1257, 1234, 1285, 1306
1044, 1159, 1235, 1264, 1203
1045, 1224, 1257, 1265, 1408
1046, 1254, 1302, 1286, 1222
1047, 1238, 1202, 1201, 1256
1048, 1261, 1267, 1287, 1247
1049, 1134, 1243, 1307, 1240
1050, 1206, 1307, 1268, 1360
1051, 1274, 1346, 1269, 1288
1052, 1271, 1277, 1208, 1241
1053, 1333, 1305, 1296, 1340
1054, 1411, 1259, 1261, 1225
1055, 1202, 1238, 1287, 1226
1056, 1279, 1215, 1249, 1383
1057, 1249, 1277, 1271, 1383
1058, 1218, 1175, 1405, 1250
1059, 1400, 1280, 1393, 1300
1060, 1251, 1217, 1373, 1374
1061, 1221, 1177, 1252, 1359
1062, 1317, 1302, 1316, 1396
1063, 1282, 1218, 1250, 1316
1064, 1223, 1179, 1255, 1285
1065, 1285, 1234, 1256, 1223
1066, 1259, 1228, 1229, 1260
1067, 1276, 1260, 1230, 1209
1068, 1263, 1232, 1239, 1267
1069, 1304, 1235, 1258, 1283
1070, 1291, 1255, 1286, 1303
1071,  934, 1289, 1305,  929
1072, 1267, 1239, 1226, 1287
1073, 1212, 1349, 1275, 1243
1074, 1340, 1211, 1246, 1333
1075, 1333, 1246, 1090,  933
1076, 1270, 1168, 1208, 1245
1077, 1241, 1272, 1294, 1271
1078, 1320, 1365, 1361, 1318
1079, 1244, 1273, 1349, 1212
1080, 1273, 1274, 1295, 1353
1081, 1244, 1346, 1274, 1273
1082, 1311, 1268, 1275, 1354
1083, 1330, 1324, 1387, 1323
1084, 1248, 1280, 1400, 1216
1085, 1248, 1279, 1297, 1280
1086, 1374, 1281, 1367, 1251
1087, 1385, 1386, 1375, 1281
1088, 1303, 1286, 1302, 1317
1089, 1283, 1258, 1221, 1359
1090, 1252, 1278, 1298, 1359
1091, 1394, 1385, 1253, 1227
1092, 1291, 1303, 1262, 1265
1093, 1255, 1291, 1306, 1285
1094, 1302, 1254, 1282, 1316
1095, 1288, 1304, 1295, 1274
1096, 1266, 1236, 1290, 1296
1097, 1269, 1290, 1264, 1288
1098, 1306, 1291, 1265, 1257
1099, 1242, 1292, 1366, 1272
1100, 1311, 1308, 1360, 1268
1101, 1326, 1320, 1318, 1357
1102, 1349, 1293, 1354, 1275
1103, 1271, 1294, 1313, 1383
1104, 1313, 1297, 1279, 1383
1105, 1315, 1299, 1375, 1376
1106, 1316, 1250, 1300, 1396
1107, 1393, 1314, 1330, 1323
1108, 1280, 1297, 1314, 1393
1109, 1319, 1356, 1310, 1298
1110, 1326, 1319, 1312, 1322
1111, 1294, 1272, 1366, 1309
1112, 1361, 1292, 1308, 1311
1113, 1310, 1356, 1353, 1295
1114, 1319, 1326, 1357, 1356
1115, 1278, 1312, 1319, 1298
1116, 1299, 1315, 1322, 1312
1117, 1313, 1294, 1309, 1321
1118, 1326, 1322, 1328, 1320
1119, 1281, 1375, 1299, 1367
1120, 1301, 1387, 1324, 1376
1121, 1393, 1323, 1396, 1300
1122, 1317, 1396, 1323, 1387
1123, 1301, 1395, 1317, 1387
1124, 1311, 1354, 1318, 1361
1125, 1329, 1365, 1320, 1328
1126, 1365, 1329, 1309, 1366
1127, 1328, 1327, 1325, 1329
1128, 1330, 1325, 1327, 1324
1129, 1376, 1324, 1327, 1315
1130, 1314, 1321, 1325, 1330
1131, 1321, 1309, 1329, 1325
1132, 1339,  449,  358,  357
1133, 1344,  926,  927,  765
1134, 1345,  939,  803, 1341
1135,  392, 1343,  384, 1355
1136, 1348,  398,  381,  391
1137, 1349, 1273, 1353, 1293
1138, 1351,  392, 1355,  427
1139, 1354, 1293, 1357, 1318
1140, 1293, 1353, 1356, 1357
1141, 1046, 1092, 1363, 1364
1142, 1361, 1365, 1366, 1292
1143, 1369,  957,  955, 1368
1144, 1381, 1370,  950,  938
1145, 1372, 1091, 1377, 1130
1146, 1301, 1376, 1375, 1386
1147, 1384, 1141, 1181, 1219
1148, 1386, 1385, 1394, 1284
1149, 1301, 1386, 1284, 1395
1150, 1394, 1237, 1401, 1284
1151, 1395, 1284, 1401, 1262
1152, 1408, 1402, 1183, 1224
1153, 1409, 1410, 1148, 1154
1163,  155,  156, 1427, 1525
1164, 1580, 1577, 1665, 1663
1165, 1528, 1632, 1629, 1533
1166,  212,  213, 1497, 1498
1167,   13, 1449, 1447,   14
1168, 1422,   27,   26, 1522
1169,   34, 1437, 1433,   35
1170,  163,    7,  164, 1419
1171, 1419, 1420,  162,  163
1172, 1420, 1423,  161,  162
1173, 1423, 1424,  160,  161
1174,  159,  160, 1424, 1425
1175,  158,  159, 1425, 1415
1176, 1415, 1426,  157,  158
1177, 1472,  172,  173, 1467
1178,  156,  157, 1426, 1427
1179,  153,  154, 1428, 1429
1180, 1429, 1526,  152,  153
1181,  150,  151, 1430, 1431
1182,  149,  150, 1431, 1416
1183, 1463,  176,  177, 1486
1184, 1512, 1511,  226,  227
1185, 1509, 1493,  222,  223
1186,  183, 1484, 1471,    8
1187,  185, 1487, 1470,  184
1188,  187, 1485, 1465,  186
1189,  214,  215, 1496, 1507
1190, 1418, 1443, 1528, 1533
1191, 1444,   20,   19, 1448
1192, 1586, 1507, 1496, 1573
1193, 1485,  187,  188, 1462
1194,  217,  218, 1494, 1495
1195, 1582, 1500, 1491, 1576
1196,  182, 1459, 1477,  181
1197,  181, 1477, 1478,  180
1198, 1554, 1627, 1429, 1428
1199, 1738, 1718, 1654, 1626
1200, 1482,  175,  176, 1463
1201, 1426, 1415, 1541, 1529
1202, 1489, 1464, 1607, 2274
1203,  169, 1464, 1489,  168
1204, 1616, 1692, 1474, 1472
1205,  166, 1490, 1460,  165
1206, 1460, 1657, 1420, 1419
1207,  165, 1460, 1419,  164
1208,  201,    2,   37, 1414
1209, 1414,   37,   36, 1421
1210, 1421,   36,   35, 1433
1211, 1421, 1603, 1461, 1414
1212, 2272, 2263, 2270, 1609
1213, 1417,   32,   31, 1434
1214, 1439,   30,   29, 1440
1215,  192, 1473, 1468,  191
1216,   27, 1422, 1435,   28
1217,   25, 1441, 1522,   26
1218, 1612, 1689, 1778, 1701
1219,  191, 1468, 1562,  190
1220, 1497, 1564, 1566, 1498
1221, 1445,   16,   15, 1446
1222, 1583, 1584, 1681, 1684
1223, 1438,   33,   32, 1417
1224, 1434,   31,   30, 1439
1225, 1534, 1546, 1440, 1435
1226, 1476, 1479, 1621, 1604
1227,  193, 1475, 1473,  192
1228, 1475,  193,  194, 1476
1229, 1441,   25,   24, 1442
1230, 1442,   24,   23, 1418
1231, 1418,   23,   22, 1443
1232, 1432,   21,   20, 1444
1233,   21, 1432, 1443,   22
1234, 1498, 1567,  211,  212
1235,  209,  210, 1563, 1501
1236, 1503, 1502,  207,  208
1237, 1446,   15,   14, 1447
1238, 1547, 1538, 1446, 1447
1239, 1650, 1538, 1547, 1746
1240,   16, 1445, 1436,   17
1241,   17, 1436, 1527,   18
1242, 2267,   12,    1,  202
1243, 1495, 1499,  216,  217
1244, 1487,  185,  186, 1465
1245,  184, 1470, 1484,  183
1246,  221,  222, 1493, 1508
1247, 1492, 1509,  223,  224
1248, 1668, 1664, 1587, 1575
1249,  178, 1466, 1486,  177
1250, 1480,  179,  180, 1478
1251, 1510, 1492,  224,  225
1252, 1478, 1477, 1600, 1617
1253, 1466,  178,  179, 1480
1254, 1511, 1510,  225,  226
1255, 1416, 1450,  148,  149
1256, 1513, 1512,  227,  228
1257,  147,  148, 1450, 1451
1258, 1431, 1430, 1549, 1530
1259, 1513, 1589, 1574, 1512
1260, 1451, 1452,  146,  147
1261, 1590, 1514, 1515, 1571
1262, 1452, 1453,  145,  146
1263, 1450, 1416, 1531, 1548
1264,  143,  144, 1523, 1454
1265, 1520, 1519,  234,  235
1266, 1454, 1455,  142,  143
1267, 1674, 1765, 1755, 1676
1268,  141,  142, 1455, 1456
1269, 1572, 1519, 1520, 1593
1270, 1456, 1457,  140,  141
1271,  138,  139, 1524, 2269
1272, 2269, 1521,  236,  237
1273,    6,  138, 2269,  237
1274,  200,  201, 1414, 1461
1275,  172, 1472, 1474,  171
1276, 1486, 1466, 1619, 1598
1277, 2268, 1479,  195,  196
1278,  197,  198, 1488, 1469
1279, 1483,  189,  190, 1562
1280,  167, 1458, 1490,  166
1281, 1458,  167,  168, 1489
1282, 1424, 1423, 1553, 1532
1283, 1464,  169,  170, 1560
1284, 1613, 1691, 1482, 1463
1285,  154,  155, 1525, 1428
1286, 1467,  173,  174, 1561
1287,  175, 1482, 1561,  174
1288,  151,  152, 1526, 1430
1289, 1430, 1526, 1652, 1549
1290, 1448,   19,   18, 1527
1291, 1437,   34,   33, 1438
1292, 1461, 1481,  199,  200
1293,   28, 1435, 1440,   29
1294, 1615, 1606, 1473, 1475
1295, 1501, 1503,  208,  209
1296, 1481, 1488,  198,  199
1297, 1542, 1536, 1438, 1417
1298, 1603, 1609, 1481, 1461
1299, 1604, 1615, 1475, 1476
1300, 1726, 1630, 1629, 1727
1301, 1432, 1444, 1537, 1551
1302, 1502, 1504,  206,  207
1303, 1504, 1505,  205,  206
1304, 1449,   13,   12, 2267
1305, 2278, 1650, 1746, 1680
1306, 1568, 1504, 1502, 1583
1307,  202,  203, 1690, 2267
1308, 1505, 1506,  204,  205
1309, 1514, 1513,  228,  229
1310, 1516, 1515,  230,  231
1311, 1517, 1516,  231,  232
1312,  144,  145, 1453, 1523
1313, 1619, 1595, 1704, 1702
1314, 1518, 1517,  232,  233
1315,  139,  140, 1457, 1524
1316, 1459,  182,    8, 1471
1317, 1603, 1421, 1433, 1555
1318, 1579, 1495, 1494, 1565
1319, 1462,  188,  189, 1483
1320, 1589, 1513, 1514, 1590
1321, 1532, 1543, 1425, 1424
1322, 1560,  170,  171, 1474
1323, 1578, 1510, 1511, 1588
1324, 1428, 1525, 1654, 1554
1325, 1550, 1534, 1435, 1422
1326, 1535, 1544, 1434, 1439
1327,  196,  197, 1469, 2268
1328,  218,  219, 1500, 1494
1329, 1491, 1500,  219,  220
1330, 1472, 1467, 1605, 1616
1331, 1476,  194,  195, 1479
1332, 1546, 1535, 1439, 1440
1333, 1580, 1508, 1493, 1577
1334, 1601, 1614, 1484, 1470
1335, 1587, 1509, 1492, 1575
1336, 1469, 1488, 2270, 1611
1337, 2264, 1646, 1643, 1722
1338, 2272, 1437, 1438, 1536
1339, 1463, 1486, 1598, 1613
1340, 1442, 1418, 1533, 1556
1341, 1495, 1579, 1581, 1499
1342, 1634, 1551, 1537, 1640
1343, 1507, 1497,  213,  214
1344, 1510, 1578, 1575, 1492
1345, 1662, 1666, 1579, 1565
1346, 1543, 1645, 1644, 1541
1347, 1608, 2274, 1745, 1622
1348, 1490, 1622, 1657, 1460
1349,  220,  221, 1508, 1491
1350, 1577, 1493, 1509, 1587
1351, 1666, 1667, 1581, 1579
1352, 1669, 1679, 1586, 1573
1353, 1499, 1496,  215,  216
1354, 1462, 1483, 1612, 1597
1355, 1444, 1448, 1545, 1537
1356, 1640, 1537, 1545, 1743
1357, 1576, 1491, 1508, 1580
1358, 1658, 1501, 1563, 1686
1359, 1686, 1563, 1567, 1659
1360, 1585, 1623, 1690, 1506
1361, 1504, 1568, 1570, 1505
1362,  203,  204, 1506, 1690
1363, 1573, 1496, 1499, 1581
1364, 1512, 1574, 1588, 1511
1365, 1595, 1619, 1466, 1480
1366,  229,  230, 1515, 1514
1367, 1548, 1633, 1635, 1539
1368, 1741, 1549, 1652, 1719
1369, 1452, 1451, 1539, 1557
1370, 1715, 1682, 1572, 1593
1371,  233,  234, 1519, 1518
1372, 1516, 1591, 1571, 1515
1373, 1519, 1572, 1569, 1518
1374, 1456, 1455, 1540, 1559
1375, 1520,  235,  236, 1521
1376, 1647, 1540, 1558, 1744
1377, 1521, 2269, 1524, 2271
1378, 1524, 1457, 1594, 2271
1379, 1453, 1452, 1557, 1624
1380, 1559, 1594, 1457, 1456
1381, 1529, 1626, 1427, 1426
1382, 1436, 1445, 1552, 1625
1383, 1597, 1620, 1485, 1462
1384, 1443, 1432, 1551, 1528
1385, 1530, 1531, 1416, 1431
1386, 1591, 1516, 1517, 1592
1387, 1548, 1539, 1451, 1450
1388, 1489, 2274, 1608, 1458
1389, 1441, 1442, 1556, 1651
1390, 1422, 1522, 1653, 1550
1391, 1599, 1621, 1479, 2268
1392, 1609, 2270, 1488, 1481
1393, 1448, 1527, 1655, 1545
1394, 1703, 1785, 1794, 1706
1395, 1538, 1552, 1445, 1446
1396, 1592, 1517, 1518, 1569
1397, 1455, 1454, 1558, 1540
1398, 1454, 1523, 1656, 1558
1399, 1543, 1541, 1415, 1425
1400, 1544, 1542, 1417, 1434
1401, 1636, 1544, 1535, 1638
1402, 1645, 2273, 2275, 1694
1403, 1552, 1648, 1740, 1625
1404, 1732, 1637, 1639, 1828
1405, 1637, 1546, 1534, 1639
1406, 1447, 1449, 1623, 1547
1407, 1570, 1585, 1506, 1505
1408, 1631, 1530, 1549, 1741
1409, 1526, 1429, 1627, 1652
1410, 1561, 1482, 1691, 1688
1411, 1556, 1630, 1737, 1651
1412, 1562, 1468, 1714, 1689
1413, 1538, 1650, 1648, 1552
1414, 1657, 1553, 1423, 1420
1415, 1622, 1490, 1458, 1608
1416, 1560, 1474, 1692, 1687
1417, 1609, 1603, 1555, 2272
1418, 1555, 1433, 1437, 2272
1419, 1689, 1714, 1800, 1778
1420, 1673, 1670, 1589, 1590
1421, 1624, 1656, 1523, 1453
1422, 1520, 1521, 2271, 1593
1423, 1606, 1714, 1468, 1473
1424, 1567, 1563,  210,  211
1425, 1564, 1497, 1507, 1586
1426, 1470, 1487, 1618, 1601
1427, 1565, 1494, 1500, 1582
1428, 1659, 1567, 1498, 1566
1429, 1583, 1502, 1503, 1584
1430, 1584, 1503, 1501, 1658
1431, 1596, 1618, 1487, 1465
1432, 1671, 1672, 1588, 1574
1433, 1477, 1459, 1610, 1600
1434, 1712, 1713, 1602, 1614
1435, 1663, 1660, 1576, 1580
1436, 1844, 1753, 1766, 1842
1437, 1471, 1484, 1614, 1602
1438, 1565, 1582, 1661, 1662
1439, 1658, 1686, 1775, 1747
1440, 1759, 1667, 1666, 1760
1441, 1623, 1585, 1746, 1547
1442, 1667, 1669, 1573, 1581
1443, 1704, 1787, 1786, 1702
1444, 1665, 1757, 1756, 1663
1445, 1531, 1628, 1633, 1548
1446, 1824, 1631, 1741, 1808
1447, 1764, 1673, 1676, 1755
1448, 1905, 1649, 1647, 1826
1449, 1985, 2054, 2048, 1979
1450, 1540, 1647, 1649, 1559
1451, 1715, 1594, 1559, 1649
1452, 1480, 1478, 1617, 1595
1453, 1465, 1485, 1620, 1596
1454, 1483, 1562, 1689, 1612
1455, 1530, 1631, 1628, 1531
1456, 1544, 1636, 1643, 1542
1457, 1459, 1471, 1602, 1610
1458, 1577, 1587, 1664, 1665
1459, 1601, 1618, 1709, 1710
1460, 1614, 1601, 1710, 1712
1461, 1817, 1734, 1733, 1819
1462, 1738, 1641, 1823, 2277
1463, 1467, 1561, 1688, 1605
1464, 1630, 1556, 1533, 1629
1465, 1464, 1560, 1687, 1607
1466, 1541, 1644, 1641, 1529
1467, 1622, 1745, 1553, 1657
1468, 1536, 1646, 2263, 2272
1469, 1542, 1643, 1646, 1536
1470, 1611, 1599, 2268, 1469
1471, 1613, 1598, 1700, 1780
1472, 1628, 1725, 1724, 1633
1473, 1618, 1596, 1707, 1709
1474, 1660, 1661, 1582, 1576
1475, 2264, 1782, 1695, 1693
1476, 1696, 1697, 1604, 1621
1477, 1616, 1605, 1698, 1779
1478, 1955, 1878, 1860, 1935
1479, 1706, 1794, 1795, 1707
1480, 1789, 1705, 1708, 1792
1481, 1771, 1845, 1849, 1772
1482, 1693, 1695, 1599, 1611
1483, 1690, 1623, 1449, 2267
1484, 1539, 1635, 1642, 1557
1485, 1717, 1655, 1625, 1740
1486, 1527, 1436, 1625, 1655
1487, 1525, 1427, 1626, 1654
1488, 1529, 1641, 1738, 1626
1489, 1719, 1652, 1627, 1736
1490, 1554, 1739, 1736, 1627
1491, 1590, 1571, 1676, 1673
1492, 1632, 1528, 1551, 1634
1493, 1876, 1778, 1800, 1880
1494, 1615, 1604, 1697, 1699
1495, 1651, 1737, 1720, 1653
1496, 1688, 1691, 1798, 1777
1497, 1679, 1677, 1564, 1586
1498, 1919, 1844, 1842, 1909
1499, 1743, 1545, 1655, 1717
1500, 1818, 1729, 1730, 1903
1501, 1633, 1724, 1731, 1635
1502, 1638, 1535, 1546, 1637
1503, 1695, 1696, 1621, 1599
1504, 1639, 1534, 1550, 1742
1505, 1880, 1800, 1781, 1858
1506, 1723, 1749, 1801, 1825
1507, 1634, 1730, 1729, 1632
1508, 1694, 1721, 1644, 1645
1509, 1569, 1683, 1678, 1592
1510, 1557, 1642, 1735, 1624
1511, 2263, 1693, 1611, 2270
1512, 1543, 1532, 2273, 1645
1513, 1721, 1694, 1776, 1875
1514, 1532, 1553, 1745, 2273
1515, 1607, 1694, 2275, 2274
1516, 1693, 2263, 1646, 2264
1517, 1678, 1674, 1591, 1592
1518, 1744, 1558, 1656, 1716
1519, 1568, 1583, 1684, 1685
1520, 1715, 1649, 1905, 1682
1521, 1585, 1570, 1680, 1746
1522, 1651, 1653, 1522, 1441
1523, 1742, 1550, 1653, 1720
1524, 1716, 1656, 1624, 1735
1525, 1659, 1566, 1748, 1774
1526, 1566, 1564, 1677, 1748
1527, 1759, 1836, 1845, 1771
1528, 1703, 1706, 1620, 1597
1529, 1757, 1843, 1835, 1756
1530, 1575, 1578, 1675, 1668
1531, 1705, 1704, 1595, 1617
1532, 1708, 1705, 1617, 1600
1533, 1701, 1703, 1597, 1612
1534, 1670, 1671, 1574, 1589
1535, 1766, 1670, 1673, 1764
1536, 1730, 1634, 1640, 1827
1537, 1702, 1786, 1788, 1700
1538, 1578, 1588, 1672, 1675
1539, 1842, 1766, 1764, 1833
1540, 1571, 1591, 1674, 1676
1541, 1765, 1674, 1678, 1773
1542, 1635, 1731, 1728, 1642
1543, 1702, 1700, 1598, 1619
1544, 1569, 1572, 1682, 1683
1545, 1813, 1726, 1727, 1814
1546, 1667, 1759, 1771, 1669
1547, 1570, 1568, 1685, 1680
1548, 1763, 1801, 1749, 1685
1549, 1584, 1658, 1747, 1681
1550, 1803, 1744, 1716, 1804
1551, 1680, 1685, 1749, 2278
1552, 1744, 1803, 1826, 1647
1553, 1606, 1615, 1699, 1781
1554, 1691, 1613, 1780, 1798
1555, 1799, 1879, 1875, 1776
1556, 1722, 1643, 1636, 1734
1557, 1607, 1687, 1776, 1694
1558, 1881, 1862, 1783, 2276
1559, 1637, 1732, 1733, 1638
1560, 1782, 2276, 1696, 1695
1561, 1654, 1718, 1739, 1554
1562, 1605, 1688, 1777, 1698
1563, 1884, 1828, 1807, 1890
1564, 1714, 1606, 1781, 1800
1565, 1725, 1628, 1631, 1824
1566, 1856, 1701, 1778, 1876
1567, 1753, 1671, 1670, 1766
1568, 1760, 1666, 1662, 1758
1569, 1596, 1620, 1706, 1707
1570, 1675, 1752, 1768, 1668
1571, 1600, 1610, 1711, 1708
1572, 1762, 1661, 1660, 1761
1573, 1610, 1602, 1713, 1711
1574, 1769, 1664, 1668, 1768
1575, 1761, 1660, 1663, 1756
1576, 1791, 1710, 1709, 1790
1577, 1712, 1793, 1797, 1713
1578, 1793, 1712, 1710, 1791
1579, 1594, 1715, 1593, 2271
1580, 1717, 1802, 1806, 1743
1581, 1808, 1741, 1719, 1812
1582, 1720, 1809, 1807, 1742
1583, 1641, 1644, 1721, 1823
1584, 1779, 1799, 1692, 1616
1585, 1782, 2264, 1722, 1861
1586, 1734, 1636, 1638, 1733
1587, 1723, 1648, 1650, 2278
1588, 1671, 1753, 1754, 1672
1589, 1810, 1820, 1736, 1739
1590, 1844, 1919, 1922, 1841
1591, 1727, 1629, 1632, 1729
1592, 1773, 1678, 1683, 1767
1593, 1827, 1640, 1743, 1806
1594, 1748, 1830, 1854, 1774
1595, 1802, 1937, 1887, 1806
1596, 1684, 1770, 1763, 1685
1597, 1725, 1824, 1902, 1811
1598, 1697, 1783, 1784, 1699
1599, 1828, 1639, 1742, 1807
1600, 1881, 1861, 1817, 1896
1601, 1642, 1728, 1822, 1735
1602, 1810, 1739, 1718, 1805
1603, 1630, 1726, 1821, 1737
1604, 1698, 1857, 1859, 1779
1605, 1648, 1723, 1825, 1740
1606, 2273, 1745, 2274, 2275
1607, 1830, 1748, 1677, 1751
1608, 1873, 1874, 1950, 1949
1609, 1770, 1684, 1681, 1829
1610, 1767, 1683, 1750, 1832
1611, 1683, 1682, 1905, 1750
1612, 1751, 1677, 1679, 1772
1613, 1772, 1679, 1669, 1771
1614, 1752, 1675, 1672, 1754
1615, 1789, 1867, 1870, 1787
1616, 1816, 1815, 1731, 1724
1617, 1757, 1665, 1664, 1769
1618, 1705, 1789, 1787, 1704
1619, 1762, 1838, 1840, 1758
1620, 1758, 1662, 1661, 1762
1621, 1865, 1873, 1949, 1941
1622, 1761, 1837, 1838, 1762
1623, 1797, 1869, 1872, 1796
1624, 1874, 1795, 1794, 1864
1625, 1829, 1681, 1747, 1855
1626, 1729, 1818, 1814, 1727
1627, 1765, 1834, 2285, 1755
1628, 1905, 1826, 1832, 1750
1629, 1811, 1816, 1724, 1725
1630, 1888, 1889, 1803, 1804
1631, 1992, 1985, 1918, 1923
1632, 1752, 1831, 1847, 1768
1633, 1855, 1747, 1775, 1853
1634, 1906, 1770, 1829, 1931
1635, 1910, 2285, 1834, 1918
1636, 1686, 1659, 1774, 1775
1637, 1687, 1692, 1799, 1776
1638, 1857, 1698, 1777, 1877
1639, 1812, 1820, 1899, 1892
1640, 2279, 2023, 2286, 1954
1641, 1861, 1722, 1734, 1817
1642, 1697, 1696, 2276, 1783
1643, 1858, 1956, 2279, 1880
1644, 1699, 1784, 1858, 1781
1645, 1785, 1703, 1701, 1856
1646, 1953, 1856, 1876, 1954
1647, 1792, 1708, 1711, 1796
1648, 2049, 2046, 2088, 2092
1649, 1878, 1798, 1780, 1860
1650, 1700, 1788, 1860, 1780
1651, 1796, 1711, 1713, 1797
1652, 1852, 1769, 1768, 1847
1653, 1790, 1709, 1707, 1795
1654, 1837, 1761, 1756, 1835
1655, 1869, 1797, 1793, 1866
1656, 1914, 1840, 1838, 1911
1657, 1953, 2021, 2005, 1933
1658, 1836, 1913, 1921, 1845
1659, 1740, 1825, 1802, 1717
1660, 1848, 1763, 1770, 1906
1661, 2283, 1951, 1937, 1801
1662, 1804, 1716, 1735, 1822
1663, 1851, 1846, 1767, 1832
1664, 1901, 1882, 1822, 1728
1665, 1718, 1738, 2277, 1805
1666, 1883, 1827, 1806, 1887
1667, 1809, 1720, 1737, 1821
1668, 1824, 1808, 1885, 1902
1669, 1812, 1719, 1736, 1820
1670, 1821, 1900, 1886, 1809
1671, 1898, 1899, 1820, 1810
1672, 1894, 1897, 1816, 1811
1673, 1813, 1814, 1893, 1973
1674, 1903, 1730, 1827, 1883
1675, 1818, 1903, 1976, 1895
1676, 1728, 1731, 1815, 1901
1677, 1955, 1935, 2025, 2022
1678, 1861, 1881, 2276, 1782
1679, 1819, 1733, 1732, 1904
1680, 1931, 1829, 1855, 1929
1681, 1964, 1887, 1937, 1951
1682, 1961, 2032, 2041, 1977
1683, 1904, 1732, 1828, 1884
1684, 1805, 2277, 1936, 1891
1685, 1932, 1859, 1857, 1938
1686, 1726, 1813, 1900, 1821
1687, 1823, 1721, 1875, 2002
1688, 1779, 1859, 1879, 1799
1689, 1853, 1775, 1774, 1854
1690, 1772, 1849, 1850, 1751
1691, 1854, 1930, 1926, 1853
1692, 1831, 1752, 1754, 1841
1693, 1841, 1754, 1753, 1844
1694, 1833, 1764, 1755, 2285
1695, 1918, 1834, 1846, 1851
1696, 2293, 1910, 1979, 1909
1697, 1843, 1757, 1769, 1852
1698, 1836, 1759, 1760, 1839
1699, 1839, 1760, 1758, 1840
1700, 1927, 1843, 1852, 1928
1701, 1866, 1793, 1791, 1865
1702, 1941, 1940, 1866, 1865
1703, 1911, 1838, 1837, 1908
1704, 1922, 1919, 2298, 1991
1705, 2048, 2094, 2089, 2047
1706, 1833, 2285, 1910, 2293
1707, 1916, 1847, 1831, 1912
1708, 1811, 1902, 1975, 1894
1709, 1790, 1873, 1865, 1791
1710, 1851, 1920, 1923, 1918
1711, 1787, 1870, 1868, 1786
1712, 1801, 1763, 1848, 2283
1713, 1915, 1988, 1986, 1913
1714, 2045, 1990, 1995, 2062
1715, 1751, 1850, 1907, 1830
1716, 1963, 1993, 1888, 1882
1717, 1882, 1888, 1804, 1822
1718, 1847, 1916, 1928, 1852
1719, 1895, 1893, 1814, 1818
1720, 1877, 1777, 1798, 1878
1721, 1862, 1934, 1784, 1783
1722, 1961, 1904, 1884, 1965
1723, 1823, 2002, 1936, 2277
1724, 1788, 1863, 1935, 1860
1725, 1863, 1788, 1786, 1868
1726, 1864, 1794, 1785, 1933
1727, 1933, 1785, 1856, 1953
1728, 1873, 1790, 1795, 1874
1729, 1867, 1789, 1792, 1871
1730, 1871, 1792, 1796, 1872
1731, 1988, 1980, 2049, 2052
1732, 1843, 1927, 1917, 1835
1733, 1912, 1984, 1989, 1916
1734, 1872, 1869, 1943, 1944
1735, 1940, 2010, 2011, 1943
1736, 1940, 1943, 1869, 1866
1737, 1893, 1895, 1969, 2039
1738, 1845, 1921, 1924, 1849
1739, 2296, 2123, 2255, 2203
1740, 1877, 1952, 1938, 1857
1741, 1892, 1899, 1971, 1967
1742, 1859, 1932, 1939, 1879
1743, 1896, 2006, 1862, 1881
1744, 1934, 1956, 1858, 1784
1745, 1896, 1817, 1819, 1977
1746, 1815, 1816, 1897, 1974
1747, 1883, 1959, 1976, 1903
1748, 1890, 1807, 1809, 1886
1749, 1902, 1885, 1960, 1975
1750, 1808, 1812, 1892, 1885
1751, 1973, 1962, 1900, 1813
1752, 1937, 1802, 1825, 1801
1753, 1964, 1959, 1883, 1887
1754, 1832, 1889, 1920, 1851
1755, 1889, 1832, 1826, 1803
1756, 1891, 1898, 1810, 1805
1757, 1938, 2008, 2009, 1932
1758, 2143, 2183, 2180, 2139
1759, 1897, 1894, 1968, 2040
1760, 1929, 1990, 2000, 1931
1761, 1930, 1854, 1830, 1907
1762, 1977, 1819, 1904, 1961
1763, 1773, 1846, 1834, 1765
1764, 1974, 1958, 1901, 1815
1765, 1936, 2002, 1939, 1957
1766, 1952, 1877, 1878, 1955
1767, 1972, 1971, 1899, 1898
1768, 1853, 1926, 1929, 1855
1769, 1849, 1924, 1925, 1850
1770, 1908, 1837, 1835, 1917
1771, 1909, 1842, 1833, 2293
1772, 1985, 1979, 1910, 1918
1773, 1840, 1914, 1915, 1839
1774, 1945, 1947, 1867, 1871
1775, 1912, 1831, 1841, 1922
1776, 1913, 1836, 1839, 1915
1777, 1983, 1908, 1917, 1994
1778, 1914, 1980, 1988, 1915
1779, 1871, 1872, 1944, 1945
1780, 1958, 2030, 2027, 1963
1781, 2022, 2124, 2109, 2020
1782, 1888, 1993, 1920, 1889
1783, 1913, 1986, 1987, 1921
1784, 1982, 2297, 1909, 1979
1785, 1958, 1963, 1882, 1901
1786, 1986, 1988, 2052, 2055
1787, 1926, 1995, 1990, 1929
1788, 1850, 1925, 1978, 1907
1789, 2065, 2097, 2084, 2266
1790, 2302, 2050, 2051, 2310
1791, 1944, 1943, 2011, 2012
1792, 1932, 2009, 1957, 1939
1793, 2288, 2034, 2290, 1966
1794, 1942, 2007, 1863, 1868
1795, 1951, 2283, 1848, 2004
1796, 1967, 1960, 1885, 1892
1797, 1946, 1950, 1874, 1864
1798, 1941, 2016, 2010, 1940
1799, 1868, 1870, 1948, 1942
1800, 1911, 1981, 1980, 1914
1801, 1908, 1983, 1981, 1911
1802, 1916, 1989, 1998, 1928
1803, 1870, 1867, 1947, 1948
1804, 1864, 1933, 2005, 1946
1805, 2015, 1947, 1945, 2013
1806, 1987, 1986, 2055, 2058
1807, 1996, 1924, 1921, 1987
1808, 1906, 2003, 2004, 1848
1809, 2020, 1952, 1955, 2022
1810, 1954, 1876, 1880, 2279
1811, 1890, 1966, 1965, 1884
1812, 2279, 1956, 2281, 2023
1813, 1966, 1890, 1886, 2288
1814, 1935, 1863, 2007, 2025
1815, 2033, 2028, 1960, 1967
1816, 2006, 1896, 1977, 2041
1817, 2026, 2280, 2006, 2041
1818, 1957, 1970, 1891, 1936
1819, 1979, 2048, 2047, 1982
1820, 2031, 1976, 1959, 2084
1821, 1975, 1960, 2028, 2042
1822, 1962, 2288, 1886, 1900
1823, 2039, 2029, 1973, 1893
1824, 1993, 1963, 2027, 1992
1825, 1931, 2000, 2003, 1906
1826, 2122, 2286, 2023, 2282
1827, 2034, 2075, 2078, 2290
1828, 2008, 2068, 2037, 2009
1829, 2130, 2136, 2289, 2081
1830, 1894, 1975, 2042, 1968
1831, 1895, 1976, 2043, 1969
1832, 2064, 2001, 1978, 2044
1833, 1970, 1972, 1898, 1891
1834, 2008, 1938, 1952, 2020
1835, 2009, 2037, 1970, 1957
1836, 1907, 1978, 2001, 1930
1837, 1997, 1925, 1924, 1996
1838, 1994, 1917, 1927, 1999
1839, 1922, 1991, 1984, 1912
1840, 2298, 2297, 2302, 1991
1841, 1999, 1927, 1928, 1998
1842, 2053, 2057, 2100, 2095
1843, 2310, 2051, 2311, 2056
1844, 2019, 1949, 1950, 2018
1845, 2113, 2114, 2011, 2010
1846, 2049, 1980, 1981, 2046
1847, 1995, 1926, 1930, 2001
1848, 1982, 2047, 2090, 2050
1849, 2073, 2082, 2133, 2181
1850, 1993, 1992, 1923, 1920
1851, 2013, 1945, 1944, 2012
1852, 2024, 2112, 2005, 2021
1853, 1925, 1997, 2044, 1978
1854, 1989, 1984, 2056, 2061
1855, 1947, 2015, 2017, 1948
1856, 2002, 1875, 1879, 1939
1857, 2292, 2065, 2003, 2000
1858, 1951, 2004, 2266, 1964
1859, 1934, 1862, 2006, 2280
1860, 1942, 2014, 2067, 2007
1861, 2037, 2038, 1972, 1970
1862, 2016, 1941, 1949, 2019
1863, 1983, 1994, 2057, 2053
1864, 2053, 2046, 1981, 1983
1865, 2014, 1942, 1948, 2017
1866, 2113, 2166, 2163, 2114
1867, 1989, 2061, 2063, 1998
1868, 2018, 1950, 1946, 2066
1869, 2055, 2052, 2096, 2099
1870, 2091, 2051, 2050, 2090
1871, 2066, 1946, 2005, 2112
1872, 2058, 2055, 2099, 2103
1873, 1987, 2058, 2060, 1996
1874, 2036, 2033, 1967, 1971
1875, 2021, 1953, 1954, 2286
1876, 2029, 2294, 1962, 1973
1877, 2074, 2071, 2028, 2033
1878, 2281, 2280, 2026, 2023
1879, 2076, 2087, 2032, 2035
1880, 2123, 2287, 2171, 2255
1881, 2177, 2257, 2136, 2130
1882, 2032, 1961, 1965, 2035
1883, 1958, 1974, 2284, 2030
1884, 1992, 2027, 2054, 1985
1885, 2237, 2162, 2236, 2256
1886, 2284, 2040, 2082, 2073
1887, 2045, 2086, 2102, 2292
1888, 2084, 1959, 1964, 2266
1889, 2035, 1965, 1966, 2290
1890, 2122, 2282, 2138, 2287
1891, 2077, 2074, 2033, 2036
1892, 2294, 2295, 2075, 2034
1893, 2076, 2035, 2290, 2078
1894, 1971, 1972, 2038, 2036
1895, 2068, 2008, 2020, 2109
1896, 2038, 2037, 2068, 2079
1897, 2137, 2080, 2083, 2134
1898, 1974, 1897, 2040, 2284
1899, 2071, 2127, 2130, 2081
1900, 2043, 1976, 2031, 2072
1901, 1996, 2060, 2085, 1997
1902, 2093, 2086, 2045, 2062
1903, 2062, 1995, 2001, 2064
1904, 2071, 2081, 2042, 2028
1905, 2069, 2030, 2284, 2073
1906, 2145, 2146, 2092, 2088
1907, 2104, 2101, 2059, 2063
1908, 2052, 2049, 2092, 2096
1909, 1999, 2059, 2057, 1994
1910, 2095, 2088, 2046, 2053
1911, 2027, 2030, 2069, 2054
1912, 2292, 2000, 1990, 2045
1913, 1999, 1998, 2063, 2059
1914, 2186, 2187, 2145, 2189
1915, 2220, 2187, 2186, 2221
1916, 2115, 2116, 2013, 2012
1917, 2070, 2129, 2128, 2295
1918, 2098, 2311, 2051, 2091
1919, 2105, 2061, 2056, 2311
1920, 2064, 2044, 2108, 2107
1921, 2101, 2100, 2057, 2059
1922, 2044, 1997, 2085, 2108
1923, 2108, 2085, 2158, 2157
1924, 2004, 2003, 2065, 2266
1925, 2122, 2024, 2021, 2286
1926, 2007, 2067, 2125, 2025
1927, 2173, 2177, 2130, 2127
1928, 2079, 2077, 2036, 2038
1929, 2054, 2069, 2094, 2048
1930, 2070, 2029, 2039, 2080
1931, 2080, 2039, 1969, 2083
1932, 2097, 2139, 2031, 2084
1933, 2040, 1968, 2289, 2082
1934, 2138, 2282, 2087, 2076
1935, 2026, 2087, 2282, 2023
1936, 2079, 2068, 2109, 2291
1937, 2132, 2075, 2295, 2128
1938, 1968, 2042, 2081, 2289
1939, 2131, 2127, 2071, 2074
1940, 2083, 1969, 2043, 2072
1941, 2072, 2031, 2139, 2180
1942, 2060, 2058, 2103, 2140
1943, 2062, 2064, 2107, 2093
1944, 2087, 2026, 2041, 2032
1945, 2218, 2245, 2219, 2320
1946, 2090, 2047, 2089, 2144
1947, 2236, 2253, 2238, 2256
1948, 2148, 2098, 2091, 2304
1949, 2117, 2113, 2010, 2016
1950, 2176, 2210, 2207, 2204
1951, 2069, 2073, 2181, 2094
1952, 2114, 2115, 2012, 2011
1953, 2019, 2018, 2120, 2121
1954, 2097, 2065, 2292, 2102
1955, 2139, 2097, 2102, 2143
1956, 2322, 2321, 2325, 2152
1957, 2110, 2120, 2018, 2066
1958, 2245, 2163, 2244, 2219
1959, 2318, 2106, 2321, 2322
1960, 2119, 2118, 2017, 2015
1961, 2183, 2242, 2134, 2180
1962, 2106, 2318, 2105, 2314
1963, 2116, 2119, 2015, 2013
1964, 2090, 2144, 2304, 2091
1965, 2314, 2156, 2155, 2106
1966, 2319, 2104, 2063, 2061
1967, 2085, 2060, 2140, 2158
1968, 2093, 2107, 2301, 2300
1969, 2124, 2022, 2025, 2125
1970, 2159, 2066, 2112, 2296
1971, 2067, 2014, 2111, 2162
1972, 2014, 2017, 2118, 2111
1973, 2123, 2024, 2122, 2287
1974, 2149, 2088, 2095, 2100
1975, 2151, 2149, 2100, 2101
1976, 2325, 2154, 2194, 2152
1977, 2016, 2019, 2121, 2117
1978, 2146, 2326, 2096, 2092
1979, 2196, 2224, 2194, 2154
1980, 2187, 2220, 2218, 2324
1981, 2101, 2152, 2192, 2151
1982, 2182, 2200, 2140, 2103
1983, 2170, 2169, 2117, 2121
1984, 2132, 2135, 2078, 2075
1985, 2024, 2123, 2296, 2112
1986, 2077, 2126, 2131, 2074
1987, 2172, 2175, 2131, 2126
1988, 2077, 2079, 2291, 2126
1989, 2213, 2172, 2126, 2291
1990, 2208, 2209, 2175, 2172
1991, 2129, 2070, 2080, 2137
1992, 2128, 2129, 2174, 2176
1993, 2137, 2179, 2212, 2174
1994, 2089, 2094, 2181, 2142
1995, 2135, 2132, 2204, 2171
1996, 2181, 2133, 2178, 2142
1997, 2136, 2133, 2082, 2289
1998, 2141, 2086, 2093, 2300
1999, 2138, 2135, 2171, 2287
2000, 2076, 2078, 2135, 2138
2001, 2175, 2173, 2127, 2131
2002, 2143, 2102, 2086, 2141
2003, 2103, 2099, 2153, 2182
2004, 2107, 2108, 2157, 2301
2005, 2256, 2238, 2299, 2209
2006, 2114, 2163, 2164, 2115
2007, 2117, 2169, 2166, 2113
2008, 2301, 2157, 2303, 2191
2009, 2261, 2239, 2254, 2235
2010, 2222, 2194, 2224, 2233
2011, 2098, 2148, 2156, 2314
2012, 2115, 2164, 2165, 2116
2013, 2323, 2225, 2195, 2190
2014, 2150, 2099, 2096, 2326
2015, 2152, 2101, 2104, 2322
2016, 2223, 2192, 2222, 2248
2017, 2167, 2116, 2165, 2248
2018, 2120, 2160, 2170, 2121
2019, 2198, 2154, 2325, 2155
2020, 2167, 2168, 2119, 2116
2021, 2148, 2197, 2313, 2156
2022, 2299, 2211, 2177, 2173
2023, 2188, 2197, 2148, 2304
2024, 2174, 2212, 2210, 2176
2025, 2199, 2303, 2157, 2158
2026, 2158, 2140, 2200, 2199
2027, 2110, 2066, 2159, 2201
2028, 2120, 2110, 2307, 2160
2029, 2111, 2118, 2161, 2202
2030, 2118, 2119, 2168, 2161
2031, 2067, 2162, 2237, 2125
2032, 2193, 2151, 2192, 2223
2033, 2187, 2324, 2146, 2145
2034, 2192, 2152, 2194, 2222
2035, 2195, 2150, 2326, 2190
2036, 2215, 2231, 2182, 2153
2037, 2243, 2225, 2258, 2260
2038, 2240, 2125, 2237, 2208
2039, 2142, 2178, 2185, 2144
2040, 2242, 2216, 2214, 2179
2041, 2132, 2128, 2176, 2204
2042, 2179, 2137, 2134, 2242
2043, 2136, 2257, 2178, 2133
2044, 2141, 2184, 2183, 2143
2045, 2072, 2180, 2134, 2083
2046, 2195, 2215, 2153, 2150
2047, 2184, 2141, 2300, 2147
2048, 2301, 2191, 2147, 2300
2049, 2147, 2191, 2216, 2184
2050, 2144, 2185, 2188, 2304
2051, 2189, 2145, 2088, 2149
2052, 2156, 2313, 2198, 2155
2053, 2149, 2151, 2193, 2189
2054, 2221, 2249, 2246, 2220
2055, 2323, 2247, 2258, 2225
2056, 2227, 2216, 2191, 2303
2057, 2205, 2233, 2224, 2316
2058, 2260, 2206, 2251, 2243
2059, 2224, 2196, 2228, 2316
2060, 2257, 2217, 2185, 2178
2061, 2228, 2317, 2229, 2312
2062, 2197, 2305, 2229, 2313
2063, 2154, 2198, 2317, 2196
2064, 2216, 2227, 2241, 2214
2065, 2231, 2230, 2200, 2182
2066, 2230, 2315, 2252, 2308
2067, 2201, 2232, 2307, 2110
2068, 2203, 2235, 2159, 2296
2069, 2111, 2202, 2236, 2162
2070, 2161, 2316, 2234, 2202
2071, 2204, 2207, 2255, 2171
2072, 2168, 2205, 2316, 2161
2073, 2233, 2167, 2248, 2222
2074, 2170, 2160, 2206, 2260
2075, 2160, 2307, 2232, 2206
2076, 2203, 2255, 2207, 2261
2077, 2240, 2208, 2172, 2213
2078, 2238, 2259, 2211, 2299
2079, 2173, 2175, 2209, 2299
2080, 2210, 2212, 2306, 2239
2081, 2211, 2217, 2257, 2177
2082, 2212, 2179, 2214, 2306
2083, 2109, 2124, 2213, 2291
2084, 2240, 2213, 2124, 2125
2085, 2225, 2243, 2215, 2195
2086, 2265, 2241, 2227, 2250
2087, 2217, 2226, 2188, 2185
2088, 2221, 2186, 2189, 2193
2089, 2166, 2247, 2244, 2163
2090, 2258, 2247, 2166, 2169
2091, 2320, 2219, 2323, 2190
2092, 2165, 2164, 2246, 2249
2093, 2248, 2165, 2249, 2223
2094, 2221, 2193, 2223, 2249
2095, 2233, 2205, 2168, 2167
2096, 2260, 2258, 2169, 2170
2097, 2312, 2234, 2316, 2228
2098, 2188, 2226, 2305, 2197
2099, 2199, 2200, 2230, 2308
2100, 2250, 2227, 2308, 2252
2101, 2313, 2229, 2317, 2198
2102, 2253, 2262, 2259, 2238
2103, 2226, 2259, 2262, 2305
2104, 2232, 2309, 2252, 2206
2105, 2243, 2251, 2231, 2215
2106, 2315, 2251, 2206, 2252
2107, 2201, 2159, 2235, 2254
2108, 2202, 2234, 2253, 2236
2109, 2217, 2211, 2259, 2226
2110, 2241, 2265, 2306, 2214
2111, 2242, 2183, 2184, 2216
2112, 2254, 2239, 2265, 2309
2113, 2245, 2218, 2220, 2246
2114, 2164, 2163, 2245, 2246
2115, 2219, 2244, 2247, 2323
2116, 2234, 2312, 2262, 2253
2117, 2201, 2254, 2309, 2232
2118, 2256, 2209, 2208, 2237
2119, 2261, 2207, 2210, 2239
2120, 2229, 2305, 2262, 2312
2121, 2265, 2250, 2252, 2309
2122, 1956, 1934, 2280, 2281
2123, 2034, 2288, 1962, 2294
2124, 2295, 2294, 2029, 2070
2125, 1919, 1909, 2297, 2298
2126, 2302, 2297, 1982, 2050
2127, 2303, 2199, 2308, 2227
2128, 2310, 1984, 1991, 2302
2129, 2311, 2098, 2314, 2105
2130, 2315, 2230, 2231, 2251
2131, 2105, 2318, 2319, 2061
2132, 2319, 2318, 2322, 2104
2133, 2320, 2146, 2324, 2218
2134, 2106, 2155, 2325, 2321
2135, 2146, 2320, 2190, 2326
2157,  163,  162, 2328, 2488
2158,  157,  156, 2329, 2327
2159, 2381, 2370, 2369, 2379
2160, 2609, 2607, 2682, 2711
2161,  154,  153, 2334, 2330
2162,  162,  161, 3320, 2328
2163,  160,  159, 2332, 2331
2164,  159,  158, 2333, 2332
2165, 2327, 2333,  158,  157
2166, 2370, 3325, 2353, 2360
2167,  151,  150, 2335, 2350
2168, 2350, 2346,  152,  151
2169, 2382, 2378, 2365, 2361
2170, 2336, 2335,  150,  149
2171,  148,  147, 2337, 2348
2172,  145,  144, 2340, 2339
2173, 2338, 2337,  147,  146
2174, 2387, 2403, 2396, 2364
2175, 2339, 2338,  146,  145
2176, 2341, 2349,  143,  142
2177, 3338, 2412, 2380, 2402
2178,  141,  140, 2343, 2342
2179, 2342, 2341,  142,  141
2180, 2351, 2343, 2344, 2356
2181, 2344, 2343,  140,  139
2182, 2344,  139,  138, 2345
2183,    6,  238, 2345,  138
2184, 2362, 2355, 2366, 2384
2185, 2350, 2365, 2376, 2346
2186, 2359, 2334, 2346, 2376
2187, 2330, 2352, 2360, 2347
2188, 2347, 2360, 2353, 2329
2189,  155,  154, 2330, 2347
2190, 2367, 2385, 2390, 2404
2191, 2393, 2381, 2379, 2413
2192, 2367, 2404, 2379, 2369
2193, 2481, 3342, 2495, 2475
2194, 2626, 2627, 2692, 2683
2195,  318, 2635, 2634,  317
2196,  257,  258, 2444, 2435
2197,  310, 2623, 2593,  309
2198, 2631,  311,  312, 2624
2199, 2621,  307,  308, 2622
2200, 2606, 2605,  287,  288
2201, 2569, 2442, 2436, 2575
2202,  286,  287, 2605, 2620
2203, 2699, 2713, 2593, 2623
2204, 2595, 2596,  284,  285
2205, 2657, 2568, 2573, 2658
2206, 2597, 2632,  282,  283
2207, 2659, 2570, 2571, 2661
2208,  280,  281, 2598, 2599
2209,  269,  270, 2572, 2571
2210, 2658, 2756, 2749, 2657
2211, 2704, 2686, 2602, 2604
2212, 2602, 2603,  275,  276
2213,  273,  274, 2644, 2437
2214,  273, 2437,  272,    9
2215, 2571, 2570,  268,  269
2216,  278,  279, 2600, 2601
2217, 2568, 2438,  265,  266
2218,  266,  267, 2573, 2568
2219, 2677, 2438, 2568, 2657
2220, 2438, 2439,  264,  265
2221, 2439, 2440,  263,  264
2222, 2669, 2578, 2577, 2668
2223, 2663, 2666, 2753, 2759
2224,  289,  290, 2608, 2679
2225, 2610,  304,  305, 2619
2226, 2610, 2619, 2707, 2687
2227,  303, 2607, 2609,  302
2228,  304, 2610, 2607,  303
2229, 2612, 2689, 2801, 2680
2230,  300, 2617, 2613,  299
2231, 2612, 2615, 2708, 2689
2232,  299, 2613, 2614,  298
2233, 2691, 2690, 2810, 2708
2234,  298, 2614, 2616,  297
2235, 2690, 2691, 2614, 2613
2236,  296,   10,  297, 2616
2237, 2611,  301,  302, 2609
2238, 2865, 2801, 2689, 2768
2239,  306, 2594, 2619,  305
2240,  307, 2621, 2594,  306
2241,  309, 2593, 2622,  308
2242,  260,  261, 2436, 2442
2243, 2624,  312,  313, 2636
2244, 2544, 2549, 2557, 2548
2245, 2442, 2443,  259,  260
2246, 2636, 2625, 2694, 2715
2247, 2651, 2557, 2549, 2560
2248,  256,  257, 2435, 2445
2249, 2512, 2510, 2516, 2555
2250, 2434, 2446,  254,  255
2251, 2535, 2546, 2549, 2540
2252, 2493, 2485, 2482, 2504
2253, 2502, 3330, 2493, 2512
2254, 2478, 2469, 2431, 2467
2255, 2467, 2482, 2485, 2478
2256, 2812, 2821, 2737, 2733
2257,  331,  332, 2638, 2637
2258, 2627, 2628, 2721, 2692
2259, 2627,  321,  322, 2628
2260,  320, 2626, 2592,  319
2261,  321, 2627, 2626,  320
2262,  323, 2629, 2628,  322
2263, 3321,  325,   11,  326
2264, 2328, 3320, 2433, 2416
2265, 2419, 2409, 2416, 2433
2266, 2420, 2408, 2371, 3325
2267, 2465, 2418, 2408, 2426
2268, 2478, 2485, 2496, 2486
2269,  332,  333, 2643, 2638
2270, 2641, 2727, 2730, 2642
2271,  329,  330, 2641, 2642
2272,  324, 2630, 2629,  323
2273,  156,  155, 2347, 2329
2274, 2360, 2352, 2369, 2370
2275, 2472, 2488, 2328, 2416
2276,  161,  160, 2331, 3320
2277,  153,  152, 2346, 2334
2278, 2447, 2452,  252,  253
2279, 2378, 2385, 2376, 2365
2280, 2419, 2354, 2388, 2409
2281, 2354, 2332, 2333, 2358
2282, 2329, 2353, 2357, 2327
2283, 2327, 2357, 2358, 2333
2284, 2392, 2378, 2382, 2394
2285,  149,  148, 2348, 2336
2286, 2389, 2421, 2399, 2391
2287, 2362, 2337, 2338, 2355
2288, 2355, 2338, 2339, 2363
2289,  144,  143, 2349, 2340
2290, 2363, 2339, 2340, 3323
2291, 2349, 2396, 3323, 2340
2292, 2364, 2341, 2342, 3324
2293, 2343, 2351, 3324, 2342
2294, 2407, 2398, 2351, 2356
2295,  238, 2356, 2344, 2345
2296, 2356,  238,  239, 2407
2297, 2384, 2377, 2374, 2362
2298, 2361, 2335, 2336, 2375
2299, 2335, 2361, 2365, 2350
2300, 2372, 2398, 2406, 2397
2301, 2352, 2330, 2334, 2359
2302, 2394, 2400, 2401, 2392
2303, 2381, 2393, 2405, 2420
2304, 2373, 2388, 2354, 2358
2305, 2332, 2354, 2419, 2331
2306, 3328, 2395, 2411, 2402
2307, 3326, 2425, 3329, 2406
2308, 2391, 2383, 2377, 2389
2309, 2367, 2369, 2352, 2359
2310, 2375, 2336, 2348, 2374
2311, 2411, 3329, 2461, 2402
2312, 2337, 2362, 2374, 2348
2313, 2355, 2363, 2368, 2366
2314, 2341, 2364, 2396, 2349
2315, 2459, 2474, 2497, 2410
2316, 2375, 2374, 2377, 2383
2317, 2401, 2432, 3353, 2414
2318, 2396, 2403, 2386, 3323
2319, 2380, 2366, 3328, 2402
2320, 2357, 2353, 3325, 2371
2321, 2418, 2417, 2388, 2373
2322, 2358, 2357, 2371, 2373
2323, 2381, 2420, 3325, 2370
2324, 2364, 3324, 2372, 2387
2325, 2388, 2417, 2429, 2409
2326, 2422, 2384, 2366, 2380
2327, 2390, 2385, 2378, 2392
2328, 2504, 2509, 2517, 2510
2329, 3328, 2366, 2368, 2386
2330, 3338, 2459, 2421, 2412
2331, 2426, 2408, 2420, 2405
2332, 2383, 2382, 2361, 2375
2333, 2389, 2377, 2384, 2422
2334, 2385, 2367, 2359, 2376
2335, 2386, 2368, 2363, 3323
2336, 2387, 2372, 2397, 3327
2337, 2416, 2409, 2428, 2472
2338, 2400, 2394, 2391, 2399
2339, 2383, 2391, 2394, 2382
2340, 2389, 2422, 2412, 2421
2341, 2446, 2447,  253,  254
2342, 2428, 2409, 2429, 2464
2343, 2397, 2406, 3329, 2411
2344,  244,  245, 2451, 2453
2345, 2351, 2398, 2372, 3324
2346, 2427, 2425, 3326, 2415
2347,  240, 2430, 2407,  239
2348, 2454, 2451,  245,  246
2349, 2410, 2424, 2400, 2399
2350, 2424, 2432, 2401, 2400
2351, 2392, 2401, 2414, 2390
2352, 3327, 2395, 2403, 2387
2353, 2477, 2427, 2415, 2430
2354, 2386, 2403, 2395, 3328
2355, 2413, 2379, 2404, 3336
2356, 2460, 2393, 2413, 3351
2357, 2417, 2469, 2489, 2429
2358, 2415, 2398, 2407, 2430
2359, 2408, 2418, 2373, 2371
2360, 2470,  337, 2488, 2472
2361, 2449, 2456,  247,  248
2362, 2411, 2395, 3327, 2397
2363,  250,  251, 2448, 2457
2364, 2390, 2414, 3336, 2404
2365, 2455, 2458,  242,  243
2366, 2406, 2398, 2415, 3326
2367, 2470, 2472, 2428, 2464
2368, 2331, 2419, 2433, 3320
2369, 2565, 2563, 2489, 2486
2370, 2423, 2405, 2393, 2460
2371, 2426, 2405, 2423, 2466
2372, 2483, 2492, 2491, 3332
2373, 2399, 2421, 2459, 2410
2374, 2402, 2461, 2471, 3338
2375,  248,  249, 2450, 2449
2376, 3329, 2425, 2473, 2461
2377, 2498, 2514, 2513, 2508
2378, 2453, 2455,  243,  244
2379, 2479, 2470, 2464, 2563
2380, 2469, 2417, 3331, 2431
2381, 2430,  240,  241, 2477
2382, 2458, 2477,  241,  242
2383, 2457, 2450,  249,  250
2384,  255,  256, 2445, 2434
2385,  261,  262, 2441, 2436
2386, 2578, 2441, 2440, 2577
2387, 2437, 2576,  271,  272
2388, 2596, 2597,  283,  284
2389, 2575, 2667, 2666, 2569
2390, 2439, 2574, 2577, 2440
2391,  262,  263, 2440, 2441
2392, 2442, 2569, 2579, 2443
2393,  258,  259, 2443, 2444
2394, 2501, 3354, 2511, 2524
2395, 2452, 2448,  251,  252
2396, 2473, 2483, 2471, 2461
2397, 2510, 2517, 2523, 2516
2398, 2545, 2546, 2535, 2541
2399, 2476, 2468, 2487, 2519
2400, 2456, 2454,  246,  247
2401, 3343, 2480, 2432, 2424
2402, 2463, 2427, 2468, 2476
2403, 3337, 2475, 2467, 2431
2404, 2468, 2427, 2477, 2458
2405, 2410, 2497, 3343, 2424
2406, 2475, 3337, 2466, 2481
2407, 2463, 2473, 2425, 2427
2408, 2459, 3338, 2471, 2474
2409, 2509, 2495, 3342, 2501
2410, 2543, 2547, 2550, 2552
2411, 2486, 2489, 2469, 2478
2412, 2470, 2479,  336,  337
2413, 3331, 2465, 3337, 2431
2414, 2426, 2466, 3337, 2465
2415, 2423, 2460, 2481, 2466
2416, 2458, 2455, 2487, 2468
2417, 2505, 2487, 2455, 2453
2418, 2491, 2500, 2507, 2498
2419, 2492, 2463, 2476, 2506
2420, 2490, 2484, 3332, 2491
2421, 2484, 2497, 2474, 3332
2422, 2494, 3351, 2480, 3354
2423, 2541, 2530, 2537, 2543
2424, 2486, 2496, 2503, 2565
2425, 3322, 2724, 2655, 2656
2426,  336, 2479, 2724,  335
2427, 2499, 2462, 2484, 2490
2428, 2532, 2536, 2526, 2520
2429, 2482, 2467, 2475, 2495
2430, 2535, 2540, 2536, 2532
2431, 2474, 2471, 2483, 3332
2432, 2492, 2483, 2473, 2463
2433, 2497, 2484, 2462, 3343
2434, 2485, 2493, 3330, 2496
2435, 2655, 2563, 2565, 2656
2436, 2488,  337,    7,  163
2437, 2489, 2563, 2464, 2429
2438, 2505, 2453, 2451, 2559
2439, 2507, 2522, 2514, 2498
2440, 2500, 2491, 2492, 2506
2441, 2500, 2506, 2515, 2507
2442, 2678,  316,  317, 2634
2443,  319, 2592, 2635,  318
2444, 2481, 2460, 2494, 3342
2445, 2499, 2490, 2508, 3350
2446, 2504, 2482, 2495, 2509
2447, 2518, 2502, 2512, 2555
2448, 2490, 2491, 2498, 2508
2449, 2746, 2747, 2675, 2676
2450, 2462, 2499, 2511, 3354
2451, 2510, 2512, 2493, 2504
2452, 2526, 2531, 2521, 2513
2453, 2559, 2451, 2454, 2566
2454, 2522, 2525, 2529, 2527
2455, 2506, 2476, 2519, 2515
2456, 2543, 2537, 2538, 2547
2457, 2508, 2513, 2521, 3350
2458, 2444, 2580, 2586, 2435
2459, 3350, 2524, 2511, 2499
2460, 2633, 2678, 2765, 2716
2461, 2527, 2529, 2537, 2530
2462, 2522, 2507, 2515, 2525
2463, 2519, 2533, 2525, 2515
2464, 2514, 2522, 2527, 2520
2465, 2501, 2524, 2528, 2509
2466, 2539, 2558, 2567, 2531
2467, 2893, 2728, 2804, 2884
2468, 2643, 2722, 2735, 2804
2469, 2519, 2487, 2505, 2533
2470, 2513, 2514, 2520, 2526
2471, 2561, 2552, 2550, 2649
2472, 2521, 2528, 2524, 3350
2473, 2528, 2521, 2531, 2567
2474, 2534, 2529, 2525, 2533
2475, 2530, 2532, 2520, 2527
2476, 2529, 2534, 2538, 2537
2477, 2509, 2528, 2567, 2517
2478, 2547, 2538, 2542, 2551
2479, 2535, 2532, 2530, 2541
2480, 2544, 2536, 2540, 2549
2481, 2534, 2559, 2542, 2538
2482, 2456, 2589, 2566, 2454
2483, 2582, 2445, 2435, 2586
2484, 2526, 2536, 2539, 2531
2485, 2449, 2590, 2589, 2456
2486, 2548, 2558, 2539, 2544
2487, 2545, 2553, 2556, 2546
2488, 2581, 2452, 2447, 2591
2489, 2505, 2559, 2534, 2533
2490, 2547, 2551, 2564, 2550
2491, 2779, 2775, 2712, 2705
2492, 2558, 2548, 2562, 2523
2493, 2445, 2582, 2583, 2434
2494, 2650, 2553, 2561, 2742
2495, 2566, 2551, 2542, 2559
2496, 2589, 2564, 2551, 2566
2497, 2452, 2581, 2585, 2448
2498, 2552, 2561, 2553, 2545
2499, 2450, 2584, 2590, 2449
2500, 2552, 2545, 2541, 2543
2501, 2553, 2650, 2652, 2556
2502, 2554, 2503, 2496, 3330
2503, 2548, 2557, 2732, 2562
2504,  315, 2633, 2625,  314
2505, 2443, 2579, 2580, 2444
2506, 2546, 2556, 2560, 2549
2507, 2560, 2648, 2740, 2651
2508, 2558, 2523, 2517, 2567
2509, 2660, 2662, 2751, 2761
2510, 2636,  313,  314, 2625
2511, 2649, 2550, 2564, 2673
2512, 2581, 2674, 2676, 2585
2513, 2555, 2516, 3346, 3345
2514, 2523, 2562, 3346, 2516
2515, 2479, 2563, 2655, 2724
2516, 2584, 2450, 2457, 2588
2517, 2646, 2647, 2554, 2518
2518, 2654, 2656, 2565, 2503
2519,  267,  268, 2570, 2573
2520,  279,  280, 2599, 2600
2521, 2575, 2436, 2441, 2578
2522, 2582, 2662, 2660, 2583
2523, 2696, 2702, 2785, 2787
2524,  277,  278, 2601, 2604
2525,  270,  271, 2576, 2572
2526, 2574, 2439, 2438, 2677
2527, 2602, 2686, 2697, 2603
2528, 2669, 2668, 2755, 2754
2529, 2752, 2753, 2666, 2667
2530, 2591, 2447, 2446, 2587
2531, 2434, 2583, 2587, 2446
2532, 2662, 2582, 2586, 2665
2533, 2583, 2660, 2670, 2587
2534, 2588, 2457, 2448, 2585
2535, 2672, 2584, 2588, 2675
2536, 2671, 2591, 2587, 2670
2537, 2663, 2579, 2569, 2666
2538, 2589, 2590, 2673, 2564
2539, 2670, 2660, 2761, 2760
2540, 2623,  310,  311, 2631
2541, 2706, 2605, 2606, 2766
2542,  285,  286, 2620, 2595
2543, 2684, 2595, 2620, 2700
2544, 2701, 2597, 2596, 2698
2545, 2632, 2598,  281,  282
2546, 2657, 2749, 2748, 2677
2547, 2702, 2598, 2632, 2717
2548, 2570, 2659, 2658, 2573
2549, 2572, 2725, 2661, 2571
2550, 2437, 2644, 2645, 2576
2551, 2604, 2602,  276,  277
2552, 2645, 2644, 2603, 2697
2553,  274,  275, 2603, 2644
2554, 2788, 2789, 2704, 2685
2555,  288,  289, 2679, 2606
2556, 2766, 2606, 2679, 2802
2557,  290,  291, 2618, 2608
2558, 2605, 2706, 2700, 2620
2559, 2771, 2770, 2710, 2711
2560, 2612, 2680,  292,  293
2561, 2705, 2712, 2594, 2621
2562, 2708, 2810, 2768, 2689
2563,  301, 2611, 2617,  300
2564, 2680, 2618,  291,  292
2565, 2617, 2611, 2710, 2709
2566, 2615, 2612,  293,  294
2567, 2615,  294,  295, 2681
2568, 2616, 2614, 2691, 2681
2569,  296, 2616, 2681,  295
2570, 2611, 2609, 2711, 2710
2571, 2695, 2705, 2621, 2622
2572, 2664, 2580, 2579, 2663
2573, 2693, 2699, 2623, 2631
2574, 2797, 2796, 2693, 2714
2575, 2633,  315,  316, 2678
2576, 2791, 2792, 2694, 2716
2577, 3003, 3001, 2942, 2945
2578, 2648, 2736, 2890, 2816
2579, 2637, 2641,  330,  331
2580, 2640, 2726, 2630, 3321
2581, 2630,  324,  325, 3321
2582, 2809, 2720, 2726, 2731
2583,  326,  327, 2640, 3321
2584,  327,  328, 2639, 2640
2585, 2595, 2684, 2698, 2596
2586, 2678, 2634, 2803, 2765
2587, 2719, 2718, 2635, 2592
2588, 2795, 2849, 2848, 2797
2589, 2653, 2738, 2817, 3335
2590, 2638, 2728, 2729, 2637
2591,  328,  329, 2642, 2639
2592, 2799, 2798, 2683, 2692
2593, 2727, 2641, 2637, 2729
2594,  333,  334, 2722, 2643
2595, 2503, 2554, 2647, 2654
2596, 2685, 2704, 2604, 2601
2597, 2518, 2555, 2653, 2646
2598, 2647, 2733, 2737, 2654
2599, 2648, 2560, 2556, 2652
2600, 2652, 2650, 2739, 2736
2601, 2742, 2561, 2649, 2822
2602, 2674, 2581, 2591, 2671
2603, 2562, 2732, 2741, 3346
2604, 2557, 2651, 2743, 2732
2605, 2716, 2694, 2625, 2633
2606, 2683, 2719, 2592, 2626
2607, 2735, 3322, 2656, 2744
2608, 2723,  335, 2724, 3322
2609, 3010, 2952, 2880, 2949
2610, 2685, 2601, 2600, 2703
2611, 2665, 2586, 2580, 2664
2612, 2750, 2751, 2662, 2665
2613, 2725, 2572, 2576, 2645
2614, 2780, 2781, 2695, 2713
2615, 2667, 2575, 2578, 2669
2616, 2790, 2780, 2713, 2699
2617, 2668, 2577, 2574, 2763
2618, 2754, 2752, 2667, 2669
2619, 2777, 2776, 2717, 2701
2620, 2763, 2574, 2677, 2748
2621, 2776, 2785, 2702, 2717
2622, 2585, 2676, 2675, 2588
2623, 2673, 2672, 2822, 2649
2624, 2673, 2590, 2584, 2672
2625, 2760, 2761, 2838, 2839
2626, 2823, 2819, 2747, 2746
2627, 2671, 2670, 2760, 2762
2628, 2770, 2861, 2883, 2769
2629, 2767, 2618, 2680, 2801
2630, 2607, 2610, 2687, 2682
2631, 2798, 2793, 2719, 2683
2632, 2703, 2600, 2599, 2696
2633, 2696, 2599, 2598, 2702
2634, 2745, 2811, 2794, 2820
2635, 2622, 2593, 2713, 2695
2636, 2608, 2688, 2802, 2679
2637, 2688, 2608, 2618, 2767
2638, 2709, 2690, 2613, 2617
2639, 2615, 2681, 2691, 2708
2640, 2799, 2800, 2850, 2847
2641, 2631, 2624, 2714, 2693
2642, 2817, 2818, 2891, 2955
2643, 2782, 2778, 2698, 2684
2644, 2597, 2701, 2717, 2632
2645, 2831, 2830, 2754, 2755
2646, 2789, 2794, 2686, 2704
2647, 2778, 2782, 2853, 2856
2648, 2797, 2848, 2869, 2796
2649, 2755, 2834, 2898, 2831
2650, 2783, 2846, 2917, 2866
2651, 2787, 2786, 2703, 2696
2652, 2619, 2594, 2712, 2707
2653, 2775, 2774, 2707, 2712
2654, 2772, 2771, 2711, 2682
2655, 2852, 2688, 2851, 2922
2656, 2690, 2709, 2769, 2810
2657, 2768, 2810, 2769, 2883
2658, 2682, 2687, 2773, 2772
2659, 2861, 2770, 2771, 2862
2660, 2774, 2773, 2687, 2707
2661, 2715, 2714, 2624, 2636
2662, 2815, 2890, 2736, 3348
2663, 2718, 2803, 2634, 2635
2664, 3023, 3072, 2966, 2978
2665, 2629, 2720, 2721, 2628
2666, 2723, 2722,  334,  335
2667, 2723, 3322, 2735, 2722
2668, 2645, 2697, 2811, 2725
2669, 2726, 2640, 2639, 2731
2670, 2731, 2639, 2642, 2730
2671, 2805, 2893, 2949, 2880
2672, 2728, 2638, 2643, 2804
2673, 2733, 2647, 2646, 2734
2674, 2812, 2885, 2887, 2821
2675, 2806, 2807, 2730, 2727
2676, 2732, 2743, 2845, 2741
2677, 2646, 2653, 3335, 2734
2678, 2738, 2653, 2555, 3345
2679, 2654, 2737, 2744, 2656
2680, 3346, 2741, 2818, 3345
2681, 2803, 2718, 2842, 2878
2682, 2650, 2742, 2819, 2739
2683, 2946, 2945, 2877, 2869
2684, 2738, 3345, 2818, 2817
2685, 2651, 2740, 2814, 2743
2686, 2661, 2745, 2757, 2659
2687, 2745, 2661, 2725, 2811
2688, 2676, 2674, 2764, 2746
2689, 2747, 2819, 2742, 2822
2690, 2672, 2675, 2747, 2822
2691, 2763, 2748, 2824, 2834
2692, 2756, 2658, 2659, 2757
2693, 2665, 2664, 2758, 2750
2694, 2909, 2791, 2841, 2947
2695, 2778, 2777, 2701, 2698
2696, 2759, 2758, 2664, 2663
2697, 2668, 2763, 2834, 2755
2698, 2897, 2825, 2826, 2894
2699, 2937, 2939, 2872, 2873
2700, 2786, 2788, 2685, 2703
2701, 2786, 2787, 2855, 2873
2702, 2795, 2797, 2714, 2715
2703, 2753, 2752, 2835, 2833
2704, 2739, 2819, 2892, 3348
2705, 2674, 2671, 2762, 2764
2706, 2828, 2836, 2751, 2750
2707, 2761, 2751, 2836, 2838
2708, 2823, 2900, 2892, 2819
2709, 2837, 2823, 2746, 2764
2710, 2765, 2803, 2878, 2841
2711, 2770, 2769, 2709, 2710
2712, 2870, 2767, 2801, 2865
2713, 2988, 2987, 2925, 2933
2714, 2858, 2774, 2775, 2868
2715, 2705, 2695, 2781, 2779
2716, 2859, 2781, 2780, 2875
2717, 2867, 2779, 2781, 2859
2718, 2684, 2700, 2784, 2782
2719, 2961, 2831, 2898, 2965
2720, 2700, 2706, 2783, 2784
2721, 2875, 2877, 2945, 2942
2722, 2752, 2754, 2830, 2835
2723, 2699, 2693, 2796, 2790
2724, 2829, 2832, 2758, 2759
2725, 2706, 2766, 2846, 2783
2726, 2875, 2780, 2790, 2877
2727, 2766, 2802, 2876, 2846
2728, 2854, 2853, 2782, 2784
2729, 2825, 2756, 2757, 2826
2730, 2789, 2788, 2872, 2916
2731, 2856, 2857, 2777, 2778
2732, 2939, 2937, 2996, 2962
2733, 2873, 2872, 2788, 2786
2734, 2794, 2789, 2916, 2820
2735, 2715, 2694, 2792, 2795
2736, 2816, 2890, 2956, 2888
2737, 2716, 2765, 2841, 2791
2738, 2718, 2719, 2793, 2842
2739, 2734, 3335, 2889, 2813
2740, 2697, 2686, 2794, 2811
2741, 2759, 2753, 2833, 2829
2742, 2832, 2902, 2903, 2828
2743, 2692, 2721, 2800, 2799
2744, 2798, 2844, 2843, 2793
2745, 2885, 2812, 2813, 2957
2746, 2800, 2721, 2720, 2809
2747, 2844, 2847, 2915, 2912
2748, 2630, 2726, 2720, 2629
2749, 2730, 2807, 2808, 2731
2750, 2802, 2688, 2852, 2876
2751, 2735, 2744, 2884, 2804
2752, 2729, 2805, 2806, 2727
2753, 2805, 2729, 2728, 2893
2754, 2919, 2915, 2847, 2850
2755, 2800, 2809, 2882, 2850
2756, 2731, 2808, 2882, 2809
2757, 2733, 2734, 2813, 2812
2758, 2798, 2799, 2847, 2844
2759, 2743, 2814, 2886, 2845
2760, 2740, 2648, 2816, 2888
2761, 3030, 3026, 2972, 2970
2762, 2888, 2954, 2814, 2740
2763, 2909, 2947, 3007, 2975
2764, 2820, 2826, 2757, 2745
2765, 2884, 2821, 2887, 2893
2766, 2744, 2737, 2821, 2884
2767, 2900, 2823, 2837, 2911
2768, 2834, 2824, 2896, 2898
2769, 2749, 2827, 2824, 2748
2770, 2749, 2756, 2825, 2827
2771, 2916, 2872, 2939, 2894
2772, 2750, 2758, 2832, 2828
2773, 2860, 2792, 2791, 2909
2774, 2975, 3007, 3057, 3027
2775, 2776, 2777, 2857, 2874
2776, 2940, 2935, 2871, 2874
2777, 2848, 2849, 2920, 2944
2778, 2796, 2869, 2877, 2790
2779, 2853, 2854, 2921, 2923
2780, 3019, 2901, 2961, 3024
2781, 2762, 2760, 2839, 2840
2782, 2764, 2762, 2840, 2837
2783, 2907, 2838, 2836, 2904
2784, 2910, 2839, 2838, 2907
2785, 2839, 2910, 2913, 2840
2786, 2914, 2842, 2793, 2843
2787, 3008, 3006, 2948, 2914
2788, 2957, 2813, 2889, 3013
2789, 2953, 2919, 2850, 2882
2790, 2849, 2795, 2792, 2860
2791, 3015, 2891, 2960, 3071
2792, 2879, 2808, 2807, 2881
2793, 2851, 2688, 2767, 2870
2794, 2863, 2773, 2774, 2858
2795, 2876, 2852, 2941, 2943
2796, 2784, 2783, 2866, 2854
2797, 2941, 2852, 2922, 2993
2798, 2932, 2990, 2994, 2929
2799, 2787, 2785, 2871, 2855
2800, 2965, 2898, 2896, 2963
2801, 2874, 2871, 2785, 2776
2802, 2868, 2775, 2779, 2867
2803, 2866, 2917, 2981, 2924
2804, 2947, 2841, 2878, 2948
2805, 3007, 3006, 3058, 3057
2806, 2862, 2771, 2772, 2864
2807, 2864, 2772, 2773, 2863
2808, 2925, 2851, 2870, 2933
2809, 2859, 2875, 2942, 2930
2810, 2929, 2936, 2858, 2868
2811, 2933, 2870, 2865, 2927
2812, 2768, 2883, 2927, 2865
2813, 2846, 2876, 2943, 2917
2814, 2932, 2930, 2989, 2990
2815, 2924, 2921, 2854, 2866
2816, 2918, 2920, 2849, 2860
2817, 2923, 2921, 2984, 3349
2818, 2820, 2916, 2894, 2826
2819, 2855, 3341, 2937, 2873
2820, 2856, 2853, 2923, 2926
2821, 2857, 2856, 2926, 2934
2822, 2905, 2835, 2830, 2901
2823, 2908, 2833, 2835, 2905
2824, 2880, 2881, 2806, 2805
2825, 3011, 2887, 2885, 3016
2826, 2978, 2966, 2915, 2919
2827, 2882, 2808, 2879, 2953
2828, 2861, 2862, 2928, 2950
2829, 2949, 2893, 2887, 3011
2830, 2956, 3069, 2954, 2888
2831, 2741, 2845, 2895, 2818
2832, 2900, 2976, 2959, 2892
2833, 2828, 2903, 2904, 2836
2834, 2818, 2895, 2960, 2891
2835, 3363, 2886, 3064, 3066
2836, 2815, 3348, 2892, 2959
2837, 2886, 2814, 2954, 3064
2838, 3024, 2961, 2965, 3021
2839, 2825, 2897, 2899, 2827
2840, 2824, 2827, 2899, 2896
2841, 2874, 2857, 2934, 2940
2842, 2911, 2837, 2840, 2913
2843, 2901, 2830, 2831, 2961
2844, 2902, 2832, 2829, 2906
2845, 2906, 2829, 2833, 2908
2846, 2902, 2969, 2970, 2903
2847, 2983, 2984, 2921, 2924
2848, 2944, 2946, 2869, 2848
2849, 2903, 2970, 2972, 2904
2850, 3105, 3355, 3052, 3049
2851, 2930, 2932, 2867, 2859
2852, 3357, 3270, 3211, 3235
2853, 2815, 2959, 2958, 3014
2854, 2843, 2844, 2912, 2968
2855, 3012, 3111, 3061, 3077
2856, 2907, 2971, 2977, 2910
2857, 2959, 2976, 3359, 2958
2858, 2842, 2914, 2948, 2878
2859, 2978, 3077, 3061, 3023
2860, 2936, 2938, 2863, 2858
2861, 2860, 2909, 2975, 2918
2862, 2879, 2881, 2952, 2951
2863, 2905, 2967, 2973, 2908
2864, 2984, 2983, 3038, 3360
2865, 2926, 2923, 3349, 2985
2866, 3098, 3050, 3042, 3093
2867, 2933, 2927, 2950, 2988
2868, 2992, 2935, 2940, 3352
2869, 2862, 2864, 2931, 2928
2870, 2864, 2863, 2938, 2931
2871, 2868, 2867, 2932, 2929
2872, 3055, 3003, 3005, 3056
2873, 3017, 3009, 2991, 3043
2874, 3117, 3067, 3096, 3146
2875, 2950, 2927, 2883, 2861
2876, 2899, 2897, 2962, 2964
2877, 2962, 2897, 2894, 2939
2878, 2855, 2871, 2935, 3341
2879, 2917, 2943, 3002, 2981
2880, 2999, 2941, 2993, 3044
2881, 3019, 3024, 3078, 3074
2882, 2934, 2926, 2985, 2986
2883, 2987, 2993, 2922, 2925
2884, 2997, 3004, 2944, 2920
2885, 2908, 2973, 2974, 2906
2886, 2982, 2997, 2920, 2918
2887, 2914, 2843, 2968, 3008
2888, 2928, 2931, 2991, 3009
2889, 3013, 2889, 2955, 3339
2890, 3077, 2953, 2879, 2951
2891, 2817, 2955, 2889, 3335
2892, 2890, 2815, 3014, 2956
2893, 2904, 2972, 2971, 2907
2894, 2957, 3119, 3016, 2885
2895, 2976, 2900, 2911, 2980
2896, 2886, 3363, 2895, 2845
2897, 3116, 3064, 2954, 3069
2898, 2996, 2937, 3341, 2998
2899, 3074, 3078, 3131, 3126
2900, 2964, 2963, 2896, 2899
2901, 2962, 2996, 3020, 2964
2902, 2912, 2915, 2966, 3018
2903, 3115, 3060, 3065, 3340
2904, 2967, 2905, 2901, 3019
2905, 2969, 2902, 2906, 2974
2906, 2956, 3014, 3367, 3069
2907, 2979, 2913, 2910, 2977
2908, 2997, 3037, 3054, 3004
2909, 3025, 3030, 2970, 2969
2910, 2974, 2973, 3032, 3031
2911, 2946, 2944, 3004, 3005
2912, 2945, 2946, 3005, 3003
2913, 3068, 3339, 3015, 3123
2914, 2980, 2911, 2913, 2979
2915, 2971, 2972, 3026, 3028
2916, 2919, 2953, 3077, 2978
2917, 2951, 2952, 3012, 3077
2918, 3033, 3034, 2979, 2977
2919, 3034, 3063, 2980, 2979
2920, 2936, 2929, 2994, 3000
2921, 2918, 2975, 3027, 2982
2922, 2924, 2981, 3035, 2983
2923, 2981, 3002, 3052, 3035
2924, 2985, 3349, 3039, 3040
2925, 2992, 3041, 3045, 2998
2926, 2998, 3045, 3047, 2996
2927, 3352, 2986, 3041, 2992
2928, 2988, 3009, 3017, 2987
2929, 2950, 2928, 3009, 2988
2930, 2930, 2942, 3001, 2989
2931, 3050, 2994, 2990, 3042
2932, 2931, 2938, 2995, 2991
2933, 2935, 2992, 2998, 3341
2934, 3067, 2993, 2987, 3017
2935, 2938, 2936, 3000, 2995
2936, 3042, 2990, 2989, 3046
2937, 3067, 3017, 3043, 3096
2938, 3102, 3027, 3057, 3110
2939, 2973, 2967, 3029, 3032
2940, 2986, 2985, 3040, 3361
2941, 3091, 3141, 3142, 3092
2942, 2943, 2941, 2999, 3002
2943, 3049, 2999, 3044, 3094
2944, 3144, 3147, 3097, 3094
2945, 3030, 3025, 3085, 3081
2946, 2947, 2948, 3006, 3007
2947, 3018, 3036, 2968, 2912
2948, 3010, 2949, 3011, 3060
2949, 3062, 3010, 3060, 3115
2950, 3187, 3136, 3139, 3193
2951, 2955, 2891, 3015, 3339
2952, 2976, 2980, 3063, 3359
2953, 2977, 2971, 3028, 3033
2954, 3071, 2960, 2895, 3363
2955, 3100, 3059, 3036, 3358
2956, 3175, 3216, 3186, 3149
2957, 3060, 3011, 3016, 3065
2958, 3065, 3016, 3119, 3334
2959, 3043, 2991, 2995, 3048
2960, 3008, 2968, 3036, 3059
2961, 3021, 2965, 2963, 3022
2962, 3089, 3039, 3360, 3135
2963, 3022, 2963, 2964, 3020
2964, 3045, 3092, 3095, 3047
2965, 3112, 3118, 3125, 3111
2966, 2969, 2974, 3031, 3025
2967, 3145, 3079, 3102, 3154
2968, 3110, 3057, 3058, 3109
2969, 3177, 3133, 3132, 3179
2970, 2967, 3019, 3074, 3029
2971, 3090, 3039, 3089, 3140
2972, 3083, 3084, 3031, 3032
2973, 3004, 3054, 3056, 3005
2974, 3197, 3155, 3158, 3199
2975, 3080, 3086, 3028, 3026
2976, 2958, 3121, 3367, 3014
2977, 3018, 2966, 3072, 3073
2978, 3037, 2997, 2982, 3079
2979, 3079, 2982, 3027, 3102
2980, 3355, 2983, 3035, 3052
2981, 3105, 3152, 3087, 3355
2982, 3141, 3182, 3183, 3142
2983, 3022, 3020, 3113, 3075
2984, 3039, 3090, 3361, 3040
2985, 3046, 2989, 3001, 3053
2986, 3053, 3001, 3003, 3055
2987, 3048, 2995, 3000, 3051
2988, 3051, 3000, 2994, 3050
2989, 3067, 3117, 3044, 2993
2990, 3108, 3055, 3056, 3107
2991, 3020, 2996, 3047, 3113
2992, 3049, 3094, 3097, 3105
2993, 3051, 3104, 3099, 3048
2994, 3002, 2999, 3049, 3052
2995, 3093, 3042, 3046, 3103
2996, 3107, 3056, 3054, 3101
2997, 3196, 3130, 3145, 3184
2998, 3147, 3185, 3188, 3152
2999, 3085, 3084, 3139, 3136
3000, 3081, 3080, 3026, 3030
3001, 3059, 3058, 3006, 3008
3002, 3120, 3204, 3164, 3340
3003, 2952, 3010, 3062, 3012
3004, 3012, 3062, 3112, 3111
3005, 2958, 3359, 3070, 3121
3006, 3339, 3068, 3333, 3013
3007, 3111, 3125, 3023, 3061
3008, 3036, 3018, 3073, 3358
3009, 3096, 3043, 3048, 3099
3010, 3120, 3334, 3122, 3205
3011, 3123, 3015, 3071, 3356
3012, 3086, 3088, 3033, 3028
3013, 3088, 3114, 3034, 3033
3014, 3129, 3149, 3358, 3073
3015, 3079, 3145, 3130, 3037
3016, 3075, 3076, 3021, 3022
3017, 3041, 3091, 3092, 3045
3018, 3126, 3131, 3178, 3171
3019, 3024, 3021, 3076, 3078
3020, 3086, 3080, 3133, 3138
3021, 3082, 3083, 3032, 3029
3022, 3103, 3155, 3150, 3093
3023, 3029, 3074, 3126, 3082
3024, 3053, 3106, 3103, 3046
3025, 3025, 3031, 3084, 3085
3026, 3084, 3083, 3137, 3139
3027, 3132, 3133, 3080, 3081
3028, 3087, 3038, 2983, 3355
3029, 3088, 3086, 3138, 3370
3030, 3063, 3034, 3114, 3167
3031, 3371, 3251, 3215, 3240
3032, 3368, 3038, 3087, 3189
3033, 3162, 3127, 3075, 3113
3034, 3361, 3091, 3041, 2986
3035, 3141, 3090, 3140, 3182
3036, 3106, 3053, 3055, 3108
3037, 3117, 3144, 3094, 3044
3038, 3162, 3113, 3047, 3095
3039, 3050, 3098, 3104, 3051
3040, 3104, 3153, 3151, 3099
3041, 3155, 3103, 3106, 3158
3042, 3144, 3117, 3146, 3207
3043, 3059, 3100, 3109, 3058
3044, 3073, 3072, 3124, 3129
3045, 3101, 3054, 3037, 3130
3046, 3149, 3109, 3100, 3358
3047, 3093, 3150, 3148, 3098
3048, 3153, 3104, 3098, 3148
3049, 3108, 3159, 3158, 3106
3050, 3218, 3217, 3177, 3179
3051, 3134, 3137, 3083, 3082
3052, 3209, 3168, 3206, 3268
3053, 3062, 3115, 3344, 3112
3054, 3063, 3167, 3070, 3359
3055, 3122, 3334, 3119, 3333
3056, 3068, 3168, 3122, 3333
3057, 3064, 3116, 3160, 3066
3058, 3367, 3163, 3116, 3069
3059, 3146, 3096, 3099, 3151
3060, 3125, 3124, 3072, 3023
3061, 3203, 3344, 3164, 3239
3062, 3119, 2957, 3013, 3333
3063, 3340, 3065, 3334, 3120
3064, 3168, 3068, 3123, 3206
3065, 3163, 3367, 3121, 3201
3066, 3356, 3165, 3206, 3123
3067, 3344, 3203, 3118, 3112
3068, 3118, 3166, 3124, 3125
3069, 3127, 3128, 3076, 3075
3070, 3128, 3131, 3078, 3076
3071, 3175, 3149, 3129, 3170
3072, 3154, 3102, 3110, 3157
3073, 3183, 3240, 3362, 3172
3074, 3081, 3085, 3136, 3132
3075, 3082, 3126, 3171, 3134
3076, 3171, 3178, 3219, 3212
3077, 3159, 3108, 3107, 3156
3078, 3242, 3169, 3243, 3238
3079, 3114, 3088, 3370, 3161
3080, 3162, 3172, 3362, 3127
3081, 3090, 3141, 3091, 3361
3082, 3172, 3143, 3142, 3183
3083, 3143, 3172, 3162, 3095
3084, 3245, 3202, 3238, 3380
3085, 3163, 3201, 3379, 3202
3086, 3191, 3192, 3227, 3228
3087, 3105, 3097, 3147, 3152
3088, 3157, 3109, 3149, 3186
3089, 3235, 3166, 3203, 3239
3090, 3261, 3282, 3279, 3257
3091, 3144, 3207, 3185, 3147
3092, 3191, 3148, 3150, 3192
3093, 3153, 3194, 3195, 3151
3094, 3156, 3107, 3101, 3173
3095, 3173, 3101, 3130, 3196
3096, 3292, 3271, 3268, 3237
3097, 3230, 3227, 3192, 3197
3098, 3196, 3234, 3213, 3173
3099, 3139, 3137, 3373, 3193
3100, 3200, 3066, 3160, 3208
3101, 3161, 3370, 3169, 3242
3102, 3167, 3201, 3121, 3070
3103, 3116, 3163, 3202, 3160
3104, 3340, 3164, 3344, 3115
3105, 3170, 3129, 3124, 3166
3106, 3167, 3114, 3161, 3201
3107, 3205, 3122, 3168, 3209
3108, 3180, 3138, 3133, 3177
3109, 3200, 3364, 3237, 3165
3110, 3235, 3211, 3170, 3166
3111, 3220, 3183, 3182, 3249
3112, 3362, 3174, 3128, 3127
3113, 3184, 3145, 3154, 3190
3114, 3174, 3178, 3131, 3128
3115, 3294, 3270, 3347, 3271
3116, 3140, 3089, 3176, 3214
3117, 3250, 3221, 3216, 3366
3118, 3179, 3132, 3136, 3187
3119, 3240, 3215, 3174, 3362
3120, 3181, 3373, 3137, 3134
3121, 3267, 3266, 3236, 3231
3122, 3180, 3169, 3370, 3138
3123, 3134, 3171, 3212, 3181
3124, 3190, 3154, 3157, 3186
3125, 3148, 3191, 3194, 3153
3126, 3268, 3206, 3165, 3237
3127, 3159, 3198, 3199, 3158
3128, 3222, 3185, 3207, 3195
3129, 3368, 3189, 3176, 3135
3130, 3188, 3189, 3087, 3152
3131, 3192, 3150, 3155, 3197
3132, 3224, 3256, 3255, 3214
3133, 3197, 3199, 3232, 3230
3134, 3230, 3263, 3260, 3227
3135, 3232, 3264, 3263, 3230
3136, 3195, 3194, 3229, 3222
3137, 3196, 3184, 3223, 3234
3138, 3198, 3159, 3156, 3386
3139, 3156, 3173, 3213, 3386
3140, 3226, 3218, 3179, 3187
3141, 3212, 3219, 3259, 3247
3142, 3066, 3200, 3165, 3356
3143, 3208, 3160, 3202, 3245
3144, 3169, 3180, 3210, 3243
3145, 3204, 3120, 3205, 3241
3146, 3207, 3146, 3151, 3195
3147, 3270, 3246, 3365, 3211
3148, 3241, 3205, 3209, 3347
3149, 3180, 3177, 3217, 3210
3150, 3211, 3365, 3175, 3170
3151, 3215, 3219, 3178, 3174
3152, 3223, 3184, 3190, 3372
3153, 3182, 3140, 3214, 3249
3154, 3229, 3257, 3225, 3222
3155, 3220, 3371, 3240, 3183
3156, 3301, 3317, 3303, 3278
3157, 3186, 3216, 3221, 3190
3158, 3187, 3193, 3236, 3226
3159, 3255, 3279, 3280, 3249
3160, 3372, 3221, 3250, 3252
3161, 3245, 3291, 3293, 3208
3162, 3222, 3225, 3188, 3185
3163, 3218, 3226, 3262, 3387
3164, 3224, 3214, 3176, 3189
3165, 3224, 3189, 3188, 3225
3166, 3193, 3373, 3231, 3236
3167, 3232, 3199, 3198, 3233
3168, 3374, 3247, 3378, 3274
3169, 3282, 3261, 3260, 3283
3170, 3194, 3191, 3228, 3229
3171, 3181, 3212, 3247, 3374
3172, 3248, 3233, 3198, 3386
3173, 3213, 3234, 3265, 3248
3174, 3285, 3390, 3287, 3309
3175, 3308, 3300, 3309, 3310
3176, 3307, 3306, 3283, 3284
3177, 3269, 3292, 3237, 3364
3178, 3379, 3242, 3238, 3202
3179, 3239, 3204, 3241, 3357
3180, 3347, 3270, 3357, 3241
3181, 3161, 3242, 3379, 3201
3182, 3384, 3244, 3272, 3380
3183, 3243, 3384, 3380, 3238
3184, 3244, 3384, 3388, 3254
3185, 3254, 3217, 3218, 3387
3186, 3314, 3317, 3319, 3298
3187, 3294, 3275, 3246, 3270
3188, 3376, 3220, 3249, 3280
3189, 3304, 3377, 3295, 3302
3190, 3223, 3253, 3258, 3234
3191, 3297, 3292, 3269, 3296
3192, 3279, 3282, 3302, 3280
3193, 3219, 3215, 3251, 3259
3194, 3319, 3313, 3381, 3298
3195, 3253, 3223, 3372, 3252
3196, 3278, 3281, 3253, 3252
3197, 3256, 3224, 3225, 3257
3198, 3227, 3260, 3261, 3228
3199, 3229, 3228, 3261, 3257
3200, 3265, 3234, 3258, 3286
3201, 3278, 3252, 3277, 3301
3202, 3256, 3257, 3279, 3255
3203, 3226, 3236, 3266, 3262
3204, 3264, 3232, 3233, 3276
3205, 3274, 3267, 3231, 3374
3206, 3276, 3233, 3248, 3289
3207, 3287, 3262, 3290, 3311
3208, 3281, 3286, 3258, 3253
3209, 3299, 3310, 3311, 3316
3210, 3268, 3271, 3347, 3209
3211, 3381, 3313, 3291, 3272
3212, 3365, 3246, 3275, 3366
3213, 3385, 3273, 3298, 3381
3214, 3254, 3389, 3385, 3244
3215, 3387, 3390, 3389, 3254
3216, 3247, 3259, 3288, 3378
3217, 3263, 3284, 3283, 3260
3218, 3250, 3375, 3277, 3252
3219, 3250, 3366, 3275, 3375
3220, 3317, 3301, 3318, 3319
3221, 3303, 3317, 3314, 3305
3222, 3303, 3305, 3281, 3278
3223, 3304, 3302, 3306, 3312
3224, 3284, 3263, 3264, 3299
3225, 3312, 3306, 3307, 3382
3226, 3299, 3264, 3276, 3310
3227, 3389, 3285, 3273, 3385
3228, 3289, 3265, 3286, 3308
3229, 3290, 3266, 3267, 3383
3230, 3289, 3308, 3310, 3276
3231, 3295, 3377, 3251, 3371
3232, 3305, 3308, 3286, 3281
3233, 3382, 3383, 3274, 3378
3234, 3291, 3245, 3380, 3272
3235, 3269, 3364, 3293, 3369
3236, 3291, 3313, 3369, 3293
3237, 3297, 3294, 3271, 3292
3238, 3376, 3295, 3371, 3220
3239, 3280, 3302, 3295, 3376
3240, 3315, 3275, 3294, 3297
3241, 3296, 3269, 3369, 3318
3242, 3381, 3272, 3244, 3385
3243, 3273, 3300, 3314, 3298
3244, 3304, 3312, 3288, 3377
3245, 3284, 3299, 3316, 3307
3246, 3300, 3273, 3285, 3309
3247, 3301, 3277, 3315, 3318
3248, 3282, 3283, 3306, 3302
3249, 3300, 3308, 3305, 3314
3250, 3311, 3310, 3309, 3287
3251, 3316, 3311, 3290, 3383
3252, 3312, 3382, 3378, 3288
3253, 3318, 3369, 3313, 3319
3254, 3315, 3277, 3375, 3275
3255, 3297, 3296, 3318, 3315
3256, 3330, 2502, 2518, 2554
3257, 3331, 2417, 2418, 2465
3258, 2501, 3342, 2494, 3354
3259, 2480, 3343, 2462, 3354
3260, 3349, 2984, 3360, 3039
3261, 3351, 2413, 3336, 3353
3262, 2480, 3351, 3353, 2432
3263, 3352, 2940, 2934, 2986
3264, 3356, 3071, 3363, 3066
3265, 3038, 3368, 3135, 3360
3266, 3364, 3200, 3208, 3293
3267, 3143, 3095, 3092, 3142
3268, 3216, 3175, 3365, 3366
3269, 3373, 3181, 3374, 3231
3270, 3377, 3288, 3259, 3251
3271, 3383, 3382, 3307, 3316
3272, 3384, 3243, 3210, 3388
3273, 3390, 3387, 3262, 3287
3274, 3388, 3210, 3217, 3254
*Nset, nset=SENT-1_TOP
   9,  10, 273, 274, 275, 276, 277, 278, 279, 280, 281, 282, 283, 284, 285, 286
 287, 288, 289, 290, 291, 292, 293, 294, 295, 296
*Elset, elset=SENT-1_TOP
 2200, 2202, 2204, 2206, 2208, 2212, 2213, 2214, 2216, 2224, 2236, 2388, 2520, 2524, 2542, 2545
 2551, 2553, 2555, 2557, 2560, 2564, 2566, 2567, 2569
*Nset, nset=SENT-1_BOT
   4,   5,  79,  80,  81,  82,  83,  84,  85,  86,  87,  88,  89,  90,  91,  92
  93,  94,  95,  96,  97,  98,  99, 100, 101, 102
*Elset, elset=SENT-1_BOT
  45,  50,  70,  71,  73,  74,  75,  76,  77,  78,  79,  81,  82,  84,  85,  87
  94,  97, 104, 243, 273, 282, 288, 334, 351
*Nset, nset=SENT-1_ALL, generate
    1,  3390,     1
*Elset, elset=SENT-1_ALL, generate
    1,  3274,     1
** Section: Section-1
*Solid Section, elset=SENT-1_ALL, material=Material-1
,
*System
** 
** MATERIALS
** 
*Material, name=Material-1
**
*Density
1.,
*User material,Constants=<nProps>
<Gshear>,<Kbulk>,<lamL>,<Amp>,<nu_s0>,<nu_ss>,<dE>
*User material, type=thermal, constants=3
<lc>,<CP>,<tau>
*Depvar
<nSdv>
1,   LambdaBar, LambdaBar
2,   nu_nonlocal, nu_nonlocal
3,   Achainmax, Achainmax
4,   numax, numax
**  
** BOUNDARY CONDITIONS
** 
** Name: BOT_Fixed Type: Symmetry/Antisymmetry/Encastre
*Boundary
SENT-1_BOT, ENCASTRE
** Name: Temperature Type: Temperature
*********************************************************************
**                 INITIAL CONDITIONS, MODEL DATA
*********************************************************************
*Initial Conditions, type=TEMPERATURE
SENT-1_ALL, <nu_s0>
** ----------------------------------------------------------------
** 
** STEP: Load1
** 
*Step, name=Load1, nlgeom=YES, inc = 100000
*Coupled Temperature-displacement, creep=none, deltmx=1.
0.1, 10., 1.e-9, 10.
** 
*CONTROLS, PARAMETERS=TIME INCREMENTATION
, , , , , , ,20 , , ,
*SOLUTION TECHNIQUE, TYPE = SEPARATED
** 
** BOUNDARY CONDITIONS
** 
** Name: TOP_Load Type: Displacement/Rotation
*Boundary
SENT-1_TOP, 2, 2, 150.
** 
** OUTPUT REQUESTS
** 
*Restart, write, frequency=0
** 
** FIELD OUTPUT: F-Output-1
** 
*Output, field, number interval=10
*Node Output
NT, U
*Element Output, directions=YES
LE, S, SDV
** 
** HISTORY OUTPUT: H-Output-1
** 
*Output, history, number interval=25
*Node Output, nset=SENT-1_BOT
RF2, 
*End Step
** ----------------------------------------------------------------
** 
** STEP: Unload1
** 
*Step, name=Unload1, nlgeom=YES, inc = 100000
*Coupled Temperature-displacement, creep=none, deltmx=1.
0.1, 10., 1.e-9, 10.
** 
*CONTROLS, PARAMETERS=TIME INCREMENTATION
, , , , , , ,20 , , ,
*SOLUTION TECHNIQUE, TYPE = SEPARATED
** 
** BOUNDARY CONDITIONS
** 
** Name: TOP_Unload Type: Displacement/Rotation
*Boundary
SENT-1_TOP, 2, 2
** 
** OUTPUT REQUESTS
** 
*Restart, write, frequency=0
** 
** FIELD OUTPUT: F-Output-1
** 
*Output, field, number interval=10
*Node Output
NT, U
*Element Output, directions=YES
LE, S, SDV
** 
** HISTORY OUTPUT: H-Output-1
** 
*Output, history, number interval=25
*Node Output, nset=SENT-1_BOT
RF2, 
*End Step
** ----------------------------------------------------------------
** 
** STEP: Reload1
** 
*Step, name=Reload1, nlgeom=YES, inc = 100000
*Coupled Temperature-displacement, creep=none, deltmx=1.
0.1, 10., 1.e-9, 10.
** 
*CONTROLS, PARAMETERS=TIME INCREMENTATION
, , , , , , ,20 , , ,
*SOLUTION TECHNIQUE, TYPE = SEPARATED
** 
** BOUNDARY CONDITIONS
** 
** Name: TOP_Reload Type: Displacement/Rotation
*Boundary
SENT-1_TOP, 2, 2, 250.
** 
** OUTPUT REQUESTS
** 
*Restart, write, frequency=0
** 
** FIELD OUTPUT: F-Output-1
** 
*Output, field, number interval=10
*Node Output
NT, U
*Element Output, directions=YES
LE, S, SDV
** 
** HISTORY OUTPUT: H-Output-1
** 
*Output, history, number interval=25
*Node Output, nset=SENT-1_BOT
RF2, 
*End Step
** ----------------------------------------------------------------
** 
** STEP: Unload2
** 
*Step, name=Unload2, nlgeom=YES, inc = 100000
*Coupled Temperature-displacement, creep=none, deltmx=1.
0.1, 10., 1.e-9, 10.
** 
*CONTROLS, PARAMETERS=TIME INCREMENTATION
, , , , , , ,20 , , ,
*SOLUTION TECHNIQUE, TYPE = SEPARATED
** 
** BOUNDARY CONDITIONS
** 
** Name: TOP_Unload Type: Displacement/Rotation
*Boundary
SENT-1_TOP, 2, 2
** 
** OUTPUT REQUESTS
** 
*Restart, write, frequency=0
** 
** FIELD OUTPUT: F-Output-1
** 
*Output, field, number interval=10
*Node Output
NT, U
*Element Output, directions=YES
LE, S, SDV
** 
** HISTORY OUTPUT: H-Output-1
** 
*Output, history, number interval=25
*Node Output, nset=SENT-1_BOT
RF2, 
*End Step
** ----------------------------------------------------------------
** 
** STEP: Reload2
** 
*Step, name=Reload2, nlgeom=YES, inc = 100000
*Coupled Temperature-displacement, creep=none, deltmx=1.
0.1, 10., 1.e-9, 10.
** 
*CONTROLS, PARAMETERS=TIME INCREMENTATION
, , , , , , ,20 , , ,
*SOLUTION TECHNIQUE, TYPE = SEPARATED
** 
** BOUNDARY CONDITIONS
** 
** Name: TOP_Load Type: Displacement/Rotation
*Boundary
SENT-1_TOP, 2, 2, 350.
** 
** OUTPUT REQUESTS
** 
*Restart, write, frequency=0
** 
** FIELD OUTPUT: F-Output-1
** 
*Output, field, number interval=10
*Node Output
NT, U
*Element Output, directions=YES
LE, S, SDV
** 
** HISTORY OUTPUT: H-Output-1
** 
*Output, history, number interval=25
*Node Output, nset=SENT-1_BOT
RF2, 
*End Step
** ----------------------------------------------------------------
** 
** STEP: Unload3
** 
*Step, name=Unload3, nlgeom=YES, inc = 100000
*Coupled Temperature-displacement, creep=none, deltmx=1.
0.1, 10., 1.e-9, 10.
** 
*CONTROLS, PARAMETERS=TIME INCREMENTATION
, , , , , , ,20 , , ,
*SOLUTION TECHNIQUE, TYPE = SEPARATED
** 
** BOUNDARY CONDITIONS
** 
** Name: TOP_Unload Type: Displacement/Rotation
*Boundary
SENT-1_TOP, 2, 2
** 
** OUTPUT REQUESTS
** 
*Restart, write, frequency=0
** 
** FIELD OUTPUT: F-Output-1
** 
*Output, field, number interval=10
*Node Output
NT, U
*Element Output, directions=YES
LE, S, SDV
** 
** HISTORY OUTPUT: H-Output-1
** 
*Output, history, number interval=25
*Node Output, nset=SENT-1_BOT
RF2, 
*End Step
** ----------------------------------------------------------------
